LOCATION,MUNICH,-,DEU,Custom-Isotherm-CFD-Vergleich-WSW,108660,48.13,11.70,1.0,529.0
DESIGN CONDITIONS,0
TYPICAL/EXTREME PERIODS,0
GROUND TEMPERATURES,0
HOLIDAYS/DAYLIGHT SAVINGS,No,0,0,0
COMMENTS 1,"Synthetisches isothermes Validierungsszenario (24 identische Stundenwerte), abgeleitet aus DEU_Munich.108660_Heizperiode-WSW-statisch.epw. Zweck: direkter Vergleich mit der statischen CFD-Simulation von Flowdesk, in der sich innen die gleiche Temperatur wie aussen einstellt (kein Temperaturunterschied). Aenderung gegenueber der realen Heizperioden-Datei: Aussentemperatur auf 17 Grad C angehoben (= Innentemperatur des EnergyPlus-Modells), damit Delta-T = 0 wird. Grund: EnergyPlus berechnet den Luftstrom durch Oeffnungen als Summe aus windgetriebenem Term (proportional Windgeschwindigkeit^2) und auftriebs-/stack-getriebenem Term (proportional Temperaturdifferenz Zone-Aussenluft), siehe Sherman & Grimsrud (1980), EnergyPlus Engineering Reference Kap. 8.3.3 (Effective Leakage Area / Sherman-Grimsrud-Modell), analoge Logik gilt fuer das AirflowNetwork-Modell (Winddruck- + Auftriebsterm). Bei Delta-T ungleich 0 entsteht in EnergyPlus ein Auftriebs-Luftstrom ohne Entsprechung in der isothermen CFD-Simulation von Flowdesk; deshalb wird hier Delta-T = 0 gesetzt, um nur den winddruckgetriebenen Anteil zu vergleichen. Taupunkt (6.5 Grad C) und rel. Feuchte (50%) sind KEINE Messwerte, sondern eine gewaehlte, thermodynamisch konsistente Annahme (17 Grad C bei 78% rF, wie im Heizperioden-Datensatz gemessen, kommt in der realen Muenchner Heizperiode praktisch nicht vor - daher kein empirischer Bezugswert verfuegbar). Windgeschwindigkeit und -richtung unveraendert aus der zugehoerigen Heizperioden-Datei uebernommen."
COMMENTS 2,"Erstellt am 2026-07-10. Rueckfrage/Kontext: Telefonat mit Flowdesk zur CFD-Randbedingung (isotherm, statisch). Solar-/Beleuchtungsfelder (Position 11-20) auf 0, siehe EPW_Weather_File_Overview.pdf. Datum 15.1.1986 symbolisch, RunPeriod in IDF entsprechend setzen."
DATA PERIODS,1,1,Data,Wednesday, 1/15, 1/15
1986,1,15,1,60,A7A7E8E8*0?9?9?9?9?9?9?9A7A7A7A7A7A7*0E8*0*0,17.0,6.5,50,95300,0,0,0,0,0,0,0,0,0,0,247.5,5.07,8,6,27.3,1500,9,999999999,0,0.12,2,88,0.0,0.0,0.0
1986,1,15,2,60,A7A7E8E8*0?9?9?9?9?9?9?9A7A7A7A7A7A7*0E8*0*0,17.0,6.5,50,95300,0,0,0,0,0,0,0,0,0,0,247.5,5.07,8,6,27.3,1500,9,999999999,0,0.12,2,88,0.0,0.0,0.0
1986,1,15,3,60,A7A7E8E8*0?9?9?9?9?9?9?9A7A7A7A7A7A7*0E8*0*0,17.0,6.5,50,95300,0,0,0,0,0,0,0,0,0,0,247.5,5.07,8,6,27.3,1500,9,999999999,0,0.12,2,88,0.0,0.0,0.0
1986,1,15,4,60,A7A7E8E8*0?9?9?9?9?9?9?9A7A7A7A7A7A7*0E8*0*0,17.0,6.5,50,95300,0,0,0,0,0,0,0,0,0,0,247.5,5.07,8,6,27.3,1500,9,999999999,0,0.12,2,88,0.0,0.0,0.0
1986,1,15,5,60,A7A7E8E8*0?9?9?9?9?9?9?9A7A7A7A7A7A7*0E8*0*0,17.0,6.5,50,95300,0,0,0,0,0,0,0,0,0,0,247.5,5.07,8,6,27.3,1500,9,999999999,0,0.12,2,88,0.0,0.0,0.0
1986,1,15,6,60,A7A7E8E8*0?9?9?9?9?9?9?9A7A7A7A7A7A7*0E8*0*0,17.0,6.5,50,95300,0,0,0,0,0,0,0,0,0,0,247.5,5.07,8,6,27.3,1500,9,999999999,0,0.12,2,88,0.0,0.0,0.0
1986,1,15,7,60,A7A7E8E8*0?9?9?9?9?9?9?9A7A7A7A7A7A7*0E8*0*0,17.0,6.5,50,95300,0,0,0,0,0,0,0,0,0,0,247.5,5.07,8,6,27.3,1500,9,999999999,0,0.12,2,88,0.0,0.0,0.0
1986,1,15,8,60,A7A7E8E8*0?9?9?9?9?9?9?9A7A7A7A7A7A7*0E8*0*0,17.0,6.5,50,95300,0,0,0,0,0,0,0,0,0,0,247.5,5.07,8,6,27.3,1500,9,999999999,0,0.12,2,88,0.0,0.0,0.0
1986,1,15,9,60,A7A7E8E8*0?9?9?9?9?9?9?9A7A7A7A7A7A7*0E8*0*0,17.0,6.5,50,95300,0,0,0,0,0,0,0,0,0,0,247.5,5.07,8,6,27.3,1500,9,999999999,0,0.12,2,88,0.0,0.0,0.0
1986,1,15,10,60,A7A7E8E8*0?9?9?9?9?9?9?9A7A7A7A7A7A7*0E8*0*0,17.0,6.5,50,95300,0,0,0,0,0,0,0,0,0,0,247.5,5.07,8,6,27.3,1500,9,999999999,0,0.12,2,88,0.0,0.0,0.0
1986,1,15,11,60,A7A7E8E8*0?9?9?9?9?9?9?9A7A7A7A7A7A7*0E8*0*0,17.0,6.5,50,95300,0,0,0,0,0,0,0,0,0,0,247.5,5.07,8,6,27.3,1500,9,999999999,0,0.12,2,88,0.0,0.0,0.0
1986,1,15,12,60,A7A7E8E8*0?9?9?9?9?9?9?9A7A7A7A7A7A7*0E8*0*0,17.0,6.5,50,95300,0,0,0,0,0,0,0,0,0,0,247.5,5.07,8,6,27.3,1500,9,999999999,0,0.12,2,88,0.0,0.0,0.0
1986,1,15,13,60,A7A7E8E8*0?9?9?9?9?9?9?9A7A7A7A7A7A7*0E8*0*0,17.0,6.5,50,95300,0,0,0,0,0,0,0,0,0,0,247.5,5.07,8,6,27.3,1500,9,999999999,0,0.12,2,88,0.0,0.0,0.0
1986,1,15,14,60,A7A7E8E8*0?9?9?9?9?9?9?9A7A7A7A7A7A7*0E8*0*0,17.0,6.5,50,95300,0,0,0,0,0,0,0,0,0,0,247.5,5.07,8,6,27.3,1500,9,999999999,0,0.12,2,88,0.0,0.0,0.0
1986,1,15,15,60,A7A7E8E8*0?9?9?9?9?9?9?9A7A7A7A7A7A7*0E8*0*0,17.0,6.5,50,95300,0,0,0,0,0,0,0,0,0,0,247.5,5.07,8,6,27.3,1500,9,999999999,0,0.12,2,88,0.0,0.0,0.0
1986,1,15,16,60,A7A7E8E8*0?9?9?9?9?9?9?9A7A7A7A7A7A7*0E8*0*0,17.0,6.5,50,95300,0,0,0,0,0,0,0,0,0,0,247.5,5.07,8,6,27.3,1500,9,999999999,0,0.12,2,88,0.0,0.0,0.0
1986,1,15,17,60,A7A7E8E8*0?9?9?9?9?9?9?9A7A7A7A7A7A7*0E8*0*0,17.0,6.5,50,95300,0,0,0,0,0,0,0,0,0,0,247.5,5.07,8,6,27.3,1500,9,999999999,0,0.12,2,88,0.0,0.0,0.0
1986,1,15,18,60,A7A7E8E8*0?9?9?9?9?9?9?9A7A7A7A7A7A7*0E8*0*0,17.0,6.5,50,95300,0,0,0,0,0,0,0,0,0,0,247.5,5.07,8,6,27.3,1500,9,999999999,0,0.12,2,88,0.0,0.0,0.0
1986,1,15,19,60,A7A7E8E8*0?9?9?9?9?9?9?9A7A7A7A7A7A7*0E8*0*0,17.0,6.5,50,95300,0,0,0,0,0,0,0,0,0,0,247.5,5.07,8,6,27.3,1500,9,999999999,0,0.12,2,88,0.0,0.0,0.0
1986,1,15,20,60,A7A7E8E8*0?9?9?9?9?9?9?9A7A7A7A7A7A7*0E8*0*0,17.0,6.5,50,95300,0,0,0,0,0,0,0,0,0,0,247.5,5.07,8,6,27.3,1500,9,999999999,0,0.12,2,88,0.0,0.0,0.0
1986,1,15,21,60,A7A7E8E8*0?9?9?9?9?9?9?9A7A7A7A7A7A7*0E8*0*0,17.0,6.5,50,95300,0,0,0,0,0,0,0,0,0,0,247.5,5.07,8,6,27.3,1500,9,999999999,0,0.12,2,88,0.0,0.0,0.0
1986,1,15,22,60,A7A7E8E8*0?9?9?9?9?9?9?9A7A7A7A7A7A7*0E8*0*0,17.0,6.5,50,95300,0,0,0,0,0,0,0,0,0,0,247.5,5.07,8,6,27.3,1500,9,999999999,0,0.12,2,88,0.0,0.0,0.0
1986,1,15,23,60,A7A7E8E8*0?9?9?9?9?9?9?9A7A7A7A7A7A7*0E8*0*0,17.0,6.5,50,95300,0,0,0,0,0,0,0,0,0,0,247.5,5.07,8,6,27.3,1500,9,999999999,0,0.12,2,88,0.0,0.0,0.0
1986,1,15,24,60,A7A7E8E8*0?9?9?9?9?9?9?9A7A7A7A7A7A7*0E8*0*0,17.0,6.5,50,95300,0,0,0,0,0,0,0,0,0,0,247.5,5.07,8,6,27.3,1500,9,999999999,0,0.12,2,88,0.0,0.0,0.0
