!-Generator IDFEditor 1.55
!-Option SortedOrder

!-NOTE: All comments with '!-' are ignored by the IDFEditor and are generated automatically.
!-      Use '!' comments if they need to be retained when using the IDFEditor.


!-   ===========  ALL OBJECTS IN CLASS: VERSION ===========

! ==============================================================================
! DFR_DOE-2_5.idf
! ==============================================================================
! Modellansatz      : ZoneVentilation:DesignFlowRate, DOE-2-Koeffizientensatz, Input Output Reference
! Variante          : 5 - Tore 2 + 5 gegenueberliegend, innere Barriere mit Spalt, frontale Anstroemung
! Offene Tore       : Tor 2, Tor 5
! Innere Barriere   : ja, zwei Zonen, Kopplung ueber ZoneCrossMixing mit 18.0864 m3/s; im Volumenstrom ueber A_eff = 6.22543 m2
! Wetterdatei       : DEU_Munich.108660_Isotherm-SSE1575-u5072.epw
! Windrichtung      : 157.5 Grad (meteorologisch)
! Windgeschwindigk. : 5.071965 m/s in jeder Hoehe (flaches Profil, Exponent 0)
!                     = 6.5 * (1.7/10)^0.14, Blatt Wetter
! Randbedingung     : isotherm, T_aussen = T_zone = 17 Grad C
! EnergyPlus        : 25.2
!
! Werte aus Handrechnungen_neu.xlsx. Erzeugt von make_isotherm_varianten.py.
! Keine Undichtheiten (kein AFN_Crack, kein ZoneInfiltration) und keine
! internen Lasten: die Datei prueft ausschliesslich den Toranteil gegen die
! Handrechnung.
!
! Sollwerte fuer die Verifikation (Blatt DesignFlowRate):
!   A_eff (Reihenschaltung)  = 6.22543 m2
!   Anstroemwinkel theta     = 22.5 Grad, cos theta = 0.92388
!   k = C_D * A_eff * cos    = 3.56596 m2
!   Normierungsgeschw. u_ref = 4.46429 m/s
!   Design Flow Rate         = k * u_ref = 15.91946 m3/s
!   Koeffizientenpolynom     = 1.13612 bei u = 5.07196 m/s und dT = 0
!   Q_vent                   = 18.0864 m3/s
!   Luftwechsel (V = 10800 m3) = 6.0288 1/h
!   Referenz Q_soll = k * u   = 18.0864 m3/s  ->  Abweichung 0 Prozent
!
! ZoneVentilation:DesignFlowRate enthaelt keinen Windrichtungsterm. Der
! Unterschied zwischen den Varianten 1-3 und 4-6 steckt ausschliesslich im
! handgerechneten Design Flow Rate ueber cos theta, nicht in einer Rechnung
! von EnergyPlus. Die Wetterdatei liefert hier nur die Windgeschwindigkeit.
!
! Die innere Barriere steckt im Volumenstrom allein in
! A_eff = 6.22543 m2 statt 6.36396 m2 (Spalt 30 m2 in Reihe).
! Zweizonige Fassung: Trennflaeche bei y = 30 m; das einzige
! ZoneVentilation:DesignFlowRate-Objekt sitzt mit dem vollen
! Design Flow Rate in der luvseitigen Zone_Sued (Tor 2), Zone_Nord
! erhaelt keinen direkten Aussenluftaustausch. Beide Zonen sind ueber
! ZoneCrossMixing mit 18.0864 m3/s verbunden. Damit bleibt der
! Aussenluftaustausch der Halle exakt Q_vent und trifft die Handrechnung.
! ZoneCrossMixing tauscht in beide Richtungen dieselbe Menge und ist
! energiebilanziert; bei gleicher Zonentemperatur transportiert es null
! Energie. Das Ergebnis ist deshalb identisch mit der einzonigen Fassung
! DFR_DOE-2_5_1Zone.idf.
! ==============================================================================
Version,
    25.2;                    !- Version Identifier


!-   ===========  ALL OBJECTS IN CLASS: SIMULATIONCONTROL ===========

SimulationControl,
    No,                      !- Do Zone Sizing Calculation
    No,                      !- Do System Sizing Calculation
    No,                      !- Do Plant Sizing Calculation
    No,                      !- Run Simulation for Sizing Periods
    Yes,                     !- Run Simulation for Weather File Run Periods
    ,                        !- Do HVAC Sizing Simulation for Sizing Periods
    ;                        !- Maximum Number of HVAC Sizing Simulation Passes


!-   ===========  ALL OBJECTS IN CLASS: BUILDING ===========

Building,
    Halle_15x60x12,          !- Name
    0,                       !- North Axis {deg}
    Country,                 !- Terrain
    ,                        !- Loads Convergence Tolerance Value {W}
    ,                        !- Temperature Convergence Tolerance Value {deltaC}
    ,                        !- Solar Distribution
    ,                        !- Maximum Number of Warmup Days
    6;                       !- Minimum Number of Warmup Days


!-   ===========  ALL OBJECTS IN CLASS: TIMESTEP ===========

Timestep,
    4;                       !- Number of Timesteps per Hour


!-   ===========  ALL OBJECTS IN CLASS: SITE:LOCATION ===========

Site:Location,
    Muenchen_Bayern_DEU,     !- Name
    48.13,                   !- Latitude {deg}
    11.70,                   !- Longitude {deg}
    1,                       !- Time Zone {hr}
    529;                     !- Elevation {m}


!-   ===========  ALL OBJECTS IN CLASS: RUNPERIOD ===========

RunPeriod,
    Isotherm_15Jan,          !- Name
    1,                       !- Begin Month
    15,                      !- Begin Day of Month
    ,                        !- Begin Year
    1,                       !- End Month
    15,                      !- End Day of Month
    ,                        !- End Year
    Wednesday,               !- Day of Week for Start Day
    No,                      !- Use Weather File Holidays and Special Days
    No,                      !- Use Weather File Daylight Saving Period
    No,                      !- Apply Weekend Holiday Rule
    No,                      !- Use Weather File Rain Indicators
    No;                      !- Use Weather File Snow Indicators


!-   ===========  ALL OBJECTS IN CLASS: SITE:WEATHERSTATION ===========

Site:WeatherStation,
    10.0,                    !- Wind Sensor Height Above Ground {m}
    0.0,                     !- Wind Speed Profile Exponent
    270,                     !- Wind Speed Profile Boundary Layer Thickness {m}
    1.5;                     !- Air Temperature Sensor Height Above Ground {m}


!-   ===========  ALL OBJECTS IN CLASS: SITE:HEIGHTVARIATION ===========

Site:HeightVariation,
    0.0,                     !- Wind Speed Profile Exponent
    270,                     !- Wind Speed Profile Boundary Layer Thickness {m}
    0.0;                     !- Air Temperature Gradient Coefficient {K/m}


!-   ===========  ALL OBJECTS IN CLASS: SITE:GROUNDTEMPERATURE:BUILDINGSURFACE ===========

Site:GroundTemperature:BuildingSurface,
    17,                      !- January Ground Temperature {C}
    17,                      !- February Ground Temperature {C}
    17,                      !- March Ground Temperature {C}
    17,                      !- April Ground Temperature {C}
    17,                      !- May Ground Temperature {C}
    17,                      !- June Ground Temperature {C}
    17,                      !- July Ground Temperature {C}
    17,                      !- August Ground Temperature {C}
    17,                      !- September Ground Temperature {C}
    17,                      !- October Ground Temperature {C}
    17,                      !- November Ground Temperature {C}
    17;                      !- December Ground Temperature {C}


!-   ===========  ALL OBJECTS IN CLASS: SCHEDULETYPELIMITS ===========

ScheduleTypeLimits,
    Fractional,              !- Name
    0,                       !- Lower Limit Value
    1,                       !- Upper Limit Value
    Continuous;              !- Numeric Type

ScheduleTypeLimits,
    Temperature,             !- Name
    -60,                     !- Lower Limit Value
    200,                     !- Upper Limit Value
    Continuous,              !- Numeric Type
    Temperature;             !- Unit Type

ScheduleTypeLimits,
    Control Type,            !- Name
    0,                       !- Lower Limit Value
    4,                       !- Upper Limit Value
    Discrete,                !- Numeric Type
    Control;                 !- Unit Type


!-   ===========  ALL OBJECTS IN CLASS: SCHEDULE:CONSTANT ===========

Schedule:Constant,
    Sch_Tor_auf,             !- Name
    Fractional,              !- Schedule Type Limits Name
    1.0;                     !- Hourly Value

Schedule:Constant,
    Sch_Tor_zu,              !- Name
    Fractional,              !- Schedule Type Limits Name
    0.0;                     !- Hourly Value

Schedule:Constant,
    Sch_T_iso,               !- Name
    Temperature,             !- Schedule Type Limits Name
    17;                      !- Hourly Value

Schedule:Constant,
    Sch_Regelungsart,        !- Name
    Control Type,            !- Schedule Type Limits Name
    3;                       !- Hourly Value


!-   ===========  ALL OBJECTS IN CLASS: MATERIAL ===========

Material,
    AW_IW_Obj30_Porenbeton,  !- Name
    MediumRough,             !- Roughness
    0.2032,                  !- Thickness {m}
    0.5,                     !- Conductivity {W/m-K}
    464,                     !- Density {kg/m3}
    880;                     !- Specific Heat {J/kg-K}

Material,
    D_Obj14_Gipskarton,      !- Name
    MediumSmooth,            !- Roughness
    0.0159,                  !- Thickness {m}
    0.16,                    !- Conductivity {W/m-K}
    800,                     !- Density {kg/m3}
    1090;                    !- Specific Heat {J/kg-K}

Material,
    B_Obj43_Beton,           !- Name
    MediumRough,             !- Roughness
    0.2032,                  !- Thickness {m}
    1.95,                    !- Conductivity {W/m-K}
    2240,                    !- Density {kg/m3}
    900;                     !- Specific Heat {J/kg-K}

Material,
    AW_Obj91_Waermedaemmung, !- Name
    Rough,                   !- Roughness
    0.025,                   !- Thickness {m}
    0.0245,                  !- Conductivity {W/m-K}
    24,                      !- Density {kg/m3}
    1590;                    !- Specific Heat {J/kg-K}

Material,
    D_Obj80_Daemmung,        !- Name
    MediumRough,             !- Roughness
    0.05,                    !- Thickness {m}
    0.036,                   !- Conductivity {W/m-K}
    140,                     !- Density {kg/m3}
    960;                     !- Specific Heat {J/kg-K}

Material,
    D_Obj84_XPS,             !- Name
    MediumSmooth,            !- Roughness
    0.025,                   !- Thickness {m}
    0.029,                   !- Conductivity {W/m-K}
    29,                      !- Density {kg/m3}
    1210;                    !- Specific Heat {J/kg-K}

Material,
    D_Obj8_Built-up roofing, !- Name
    Rough,                   !- Roughness
    0.0095,                  !- Thickness {m}
    0.16,                    !- Conductivity {W/m-K}
    1120,                    !- Density {kg/m3}
    1460;                    !- Specific Heat {J/kg-K}


!-   ===========  ALL OBJECTS IN CLASS: WINDOWMATERIAL:SIMPLEGLAZINGSYSTEM ===========

WindowMaterial:SimpleGlazingSystem,
    Glazing_Tor,             !- Name
    1.8,                     !- U-Factor {W/m2-K}
    0.0001;                  !- Solar Heat Gain Coefficient


!-   ===========  ALL OBJECTS IN CLASS: CONSTRUCTION ===========

Construction,
    Aussenwand,              !- Name
    AW_Obj91_Waermedaemmung, !- Outside Layer
    AW_IW_Obj30_Porenbeton;  !- Layer 2

Construction,
    Innenwand,               !- Name
    AW_IW_Obj30_Porenbeton;  !- Outside Layer

Construction,
    Dach,                    !- Name
    D_Obj8_Built-up roofing, !- Outside Layer
    D_Obj80_Daemmung,        !- Layer 2
    D_Obj14_Gipskarton;      !- Layer 3

Construction,
    Boden,                   !- Name
    D_Obj84_XPS,             !- Outside Layer
    B_Obj43_Beton;           !- Layer 2

Construction,
    Tor,                     !- Name
    Glazing_Tor;             !- Outside Layer


!-   ===========  ALL OBJECTS IN CLASS: GLOBALGEOMETRYRULES ===========

GlobalGeometryRules,
    UpperLeftCorner,         !- Starting Vertex Position
    Counterclockwise,        !- Vertex Entry Direction
    Relative,                !- Coordinate System
    Relative,                !- Daylighting Reference Point Coordinate System
    Relative;                !- Rectangular Surface Coordinate System


!-   ===========  ALL OBJECTS IN CLASS: ZONE ===========

Zone,
    Zone_Sued,               !- Name
    0,                       !- Direction of Relative North {deg}
    0,                       !- X Origin {m}
    0,                       !- Y Origin {m}
    0,                       !- Z Origin {m}
    ,                        !- Type
    1,                       !- Multiplier
    12,                      !- Ceiling Height {m}
    5400,                    !- Volume {m3}
    450,                     !- Floor Area {m2}
    ,                        !- Zone Inside Convection Algorithm
    ,                        !- Zone Outside Convection Algorithm
    Yes;                     !- Part of Total Floor Area

Zone,
    Zone_Nord,               !- Name
    0,                       !- Direction of Relative North {deg}
    0,                       !- X Origin {m}
    0,                       !- Y Origin {m}
    0,                       !- Z Origin {m}
    ,                        !- Type
    1,                       !- Multiplier
    12,                      !- Ceiling Height {m}
    5400,                    !- Volume {m3}
    450,                     !- Floor Area {m2}
    ,                        !- Zone Inside Convection Algorithm
    ,                        !- Zone Outside Convection Algorithm
    Yes;                     !- Part of Total Floor Area


!-   ===========  ALL OBJECTS IN CLASS: BUILDINGSURFACE:DETAILED ===========

BuildingSurface:Detailed,
    Boden_Sued,              !- Name
    Floor,                   !- Surface Type
    Boden,                   !- Construction Name
    Zone_Sued,               !- Zone Name
    ,                        !- Space Name
    Ground,                  !- Outside Boundary Condition
    ,                        !- Outside Boundary Condition Object
    NoSun,                   !- Sun Exposure
    NoWind,                  !- Wind Exposure
    1,                       !- View Factor to Ground
    4,                       !- Number of Vertices
    0,                       !- Vertex 1 X-coordinate {m}
    0,                       !- Vertex 1 Y-coordinate {m}
    0,                       !- Vertex 1 Z-coordinate {m}
    0,                       !- Vertex 2 X-coordinate {m}
    30,                      !- Vertex 2 Y-coordinate {m}
    0,                       !- Vertex 2 Z-coordinate {m}
    15,                      !- Vertex 3 X-coordinate {m}
    30,                      !- Vertex 3 Y-coordinate {m}
    0,                       !- Vertex 3 Z-coordinate {m}
    15,                      !- Vertex 4 X-coordinate {m}
    0,                       !- Vertex 4 Y-coordinate {m}
    0;                       !- Vertex 4 Z-coordinate {m}

BuildingSurface:Detailed,
    Dach_Sued,               !- Name
    Roof,                    !- Surface Type
    Dach,                    !- Construction Name
    Zone_Sued,               !- Zone Name
    ,                        !- Space Name
    Outdoors,                !- Outside Boundary Condition
    ,                        !- Outside Boundary Condition Object
    SunExposed,              !- Sun Exposure
    WindExposed,             !- Wind Exposure
    0,                       !- View Factor to Ground
    4,                       !- Number of Vertices
    15,                      !- Vertex 1 X-coordinate {m}
    0,                       !- Vertex 1 Y-coordinate {m}
    12,                      !- Vertex 1 Z-coordinate {m}
    15,                      !- Vertex 2 X-coordinate {m}
    30,                      !- Vertex 2 Y-coordinate {m}
    12,                      !- Vertex 2 Z-coordinate {m}
    0,                       !- Vertex 3 X-coordinate {m}
    30,                      !- Vertex 3 Y-coordinate {m}
    12,                      !- Vertex 3 Z-coordinate {m}
    0,                       !- Vertex 4 X-coordinate {m}
    0,                       !- Vertex 4 Y-coordinate {m}
    12;                      !- Vertex 4 Z-coordinate {m}

BuildingSurface:Detailed,
    IW_West_Sued,            !- Name
    Wall,                    !- Surface Type
    Innenwand,               !- Construction Name
    Zone_Sued,               !- Zone Name
    ,                        !- Space Name
    Adiabatic,               !- Outside Boundary Condition
    ,                        !- Outside Boundary Condition Object
    NoSun,                   !- Sun Exposure
    NoWind,                  !- Wind Exposure
    0,                       !- View Factor to Ground
    4,                       !- Number of Vertices
    0,                       !- Vertex 1 X-coordinate {m}
    0,                       !- Vertex 1 Y-coordinate {m}
    12,                      !- Vertex 1 Z-coordinate {m}
    0,                       !- Vertex 2 X-coordinate {m}
    30,                      !- Vertex 2 Y-coordinate {m}
    12,                      !- Vertex 2 Z-coordinate {m}
    0,                       !- Vertex 3 X-coordinate {m}
    30,                      !- Vertex 3 Y-coordinate {m}
    0,                       !- Vertex 3 Z-coordinate {m}
    0,                       !- Vertex 4 X-coordinate {m}
    0,                       !- Vertex 4 Y-coordinate {m}
    0;                       !- Vertex 4 Z-coordinate {m}

BuildingSurface:Detailed,
    IW_Ost_Sued,             !- Name
    Wall,                    !- Surface Type
    Innenwand,               !- Construction Name
    Zone_Sued,               !- Zone Name
    ,                        !- Space Name
    Adiabatic,               !- Outside Boundary Condition
    ,                        !- Outside Boundary Condition Object
    NoSun,                   !- Sun Exposure
    NoWind,                  !- Wind Exposure
    0,                       !- View Factor to Ground
    4,                       !- Number of Vertices
    15,                      !- Vertex 1 X-coordinate {m}
    30,                      !- Vertex 1 Y-coordinate {m}
    12,                      !- Vertex 1 Z-coordinate {m}
    15,                      !- Vertex 2 X-coordinate {m}
    0,                       !- Vertex 2 Y-coordinate {m}
    12,                      !- Vertex 2 Z-coordinate {m}
    15,                      !- Vertex 3 X-coordinate {m}
    0,                       !- Vertex 3 Y-coordinate {m}
    0,                       !- Vertex 3 Z-coordinate {m}
    15,                      !- Vertex 4 X-coordinate {m}
    30,                      !- Vertex 4 Y-coordinate {m}
    0;                       !- Vertex 4 Z-coordinate {m}

BuildingSurface:Detailed,
    AW_Sued,                 !- Name
    Wall,                    !- Surface Type
    Aussenwand,              !- Construction Name
    Zone_Sued,               !- Zone Name
    ,                        !- Space Name
    Outdoors,                !- Outside Boundary Condition
    ,                        !- Outside Boundary Condition Object
    SunExposed,              !- Sun Exposure
    WindExposed,             !- Wind Exposure
    0.5,                     !- View Factor to Ground
    4,                       !- Number of Vertices
    15,                      !- Vertex 1 X-coordinate {m}
    0,                       !- Vertex 1 Y-coordinate {m}
    12,                      !- Vertex 1 Z-coordinate {m}
    0,                       !- Vertex 2 X-coordinate {m}
    0,                       !- Vertex 2 Y-coordinate {m}
    12,                      !- Vertex 2 Z-coordinate {m}
    0,                       !- Vertex 3 X-coordinate {m}
    0,                       !- Vertex 3 Y-coordinate {m}
    0,                       !- Vertex 3 Z-coordinate {m}
    15,                      !- Vertex 4 X-coordinate {m}
    0,                       !- Vertex 4 Y-coordinate {m}
    0;                       !- Vertex 4 Z-coordinate {m}

BuildingSurface:Detailed,
    Boden_Nord,              !- Name
    Floor,                   !- Surface Type
    Boden,                   !- Construction Name
    Zone_Nord,               !- Zone Name
    ,                        !- Space Name
    Ground,                  !- Outside Boundary Condition
    ,                        !- Outside Boundary Condition Object
    NoSun,                   !- Sun Exposure
    NoWind,                  !- Wind Exposure
    1,                       !- View Factor to Ground
    4,                       !- Number of Vertices
    0,                       !- Vertex 1 X-coordinate {m}
    30,                      !- Vertex 1 Y-coordinate {m}
    0,                       !- Vertex 1 Z-coordinate {m}
    0,                       !- Vertex 2 X-coordinate {m}
    60,                      !- Vertex 2 Y-coordinate {m}
    0,                       !- Vertex 2 Z-coordinate {m}
    15,                      !- Vertex 3 X-coordinate {m}
    60,                      !- Vertex 3 Y-coordinate {m}
    0,                       !- Vertex 3 Z-coordinate {m}
    15,                      !- Vertex 4 X-coordinate {m}
    30,                      !- Vertex 4 Y-coordinate {m}
    0;                       !- Vertex 4 Z-coordinate {m}

BuildingSurface:Detailed,
    Dach_Nord,               !- Name
    Roof,                    !- Surface Type
    Dach,                    !- Construction Name
    Zone_Nord,               !- Zone Name
    ,                        !- Space Name
    Outdoors,                !- Outside Boundary Condition
    ,                        !- Outside Boundary Condition Object
    SunExposed,              !- Sun Exposure
    WindExposed,             !- Wind Exposure
    0,                       !- View Factor to Ground
    4,                       !- Number of Vertices
    15,                      !- Vertex 1 X-coordinate {m}
    30,                      !- Vertex 1 Y-coordinate {m}
    12,                      !- Vertex 1 Z-coordinate {m}
    15,                      !- Vertex 2 X-coordinate {m}
    60,                      !- Vertex 2 Y-coordinate {m}
    12,                      !- Vertex 2 Z-coordinate {m}
    0,                       !- Vertex 3 X-coordinate {m}
    60,                      !- Vertex 3 Y-coordinate {m}
    12,                      !- Vertex 3 Z-coordinate {m}
    0,                       !- Vertex 4 X-coordinate {m}
    30,                      !- Vertex 4 Y-coordinate {m}
    12;                      !- Vertex 4 Z-coordinate {m}

BuildingSurface:Detailed,
    IW_West_Nord,            !- Name
    Wall,                    !- Surface Type
    Innenwand,               !- Construction Name
    Zone_Nord,               !- Zone Name
    ,                        !- Space Name
    Adiabatic,               !- Outside Boundary Condition
    ,                        !- Outside Boundary Condition Object
    NoSun,                   !- Sun Exposure
    NoWind,                  !- Wind Exposure
    0,                       !- View Factor to Ground
    4,                       !- Number of Vertices
    0,                       !- Vertex 1 X-coordinate {m}
    30,                      !- Vertex 1 Y-coordinate {m}
    12,                      !- Vertex 1 Z-coordinate {m}
    0,                       !- Vertex 2 X-coordinate {m}
    60,                      !- Vertex 2 Y-coordinate {m}
    12,                      !- Vertex 2 Z-coordinate {m}
    0,                       !- Vertex 3 X-coordinate {m}
    60,                      !- Vertex 3 Y-coordinate {m}
    0,                       !- Vertex 3 Z-coordinate {m}
    0,                       !- Vertex 4 X-coordinate {m}
    30,                      !- Vertex 4 Y-coordinate {m}
    0;                       !- Vertex 4 Z-coordinate {m}

BuildingSurface:Detailed,
    IW_Ost_Nord,             !- Name
    Wall,                    !- Surface Type
    Innenwand,               !- Construction Name
    Zone_Nord,               !- Zone Name
    ,                        !- Space Name
    Adiabatic,               !- Outside Boundary Condition
    ,                        !- Outside Boundary Condition Object
    NoSun,                   !- Sun Exposure
    NoWind,                  !- Wind Exposure
    0,                       !- View Factor to Ground
    4,                       !- Number of Vertices
    15,                      !- Vertex 1 X-coordinate {m}
    60,                      !- Vertex 1 Y-coordinate {m}
    12,                      !- Vertex 1 Z-coordinate {m}
    15,                      !- Vertex 2 X-coordinate {m}
    30,                      !- Vertex 2 Y-coordinate {m}
    12,                      !- Vertex 2 Z-coordinate {m}
    15,                      !- Vertex 3 X-coordinate {m}
    30,                      !- Vertex 3 Y-coordinate {m}
    0,                       !- Vertex 3 Z-coordinate {m}
    15,                      !- Vertex 4 X-coordinate {m}
    60,                      !- Vertex 4 Y-coordinate {m}
    0;                       !- Vertex 4 Z-coordinate {m}

BuildingSurface:Detailed,
    AW_Nord,                 !- Name
    Wall,                    !- Surface Type
    Aussenwand,              !- Construction Name
    Zone_Nord,               !- Zone Name
    ,                        !- Space Name
    Outdoors,                !- Outside Boundary Condition
    ,                        !- Outside Boundary Condition Object
    SunExposed,              !- Sun Exposure
    WindExposed,             !- Wind Exposure
    0.5,                     !- View Factor to Ground
    4,                       !- Number of Vertices
    0,                       !- Vertex 1 X-coordinate {m}
    60,                      !- Vertex 1 Y-coordinate {m}
    12,                      !- Vertex 1 Z-coordinate {m}
    15,                      !- Vertex 2 X-coordinate {m}
    60,                      !- Vertex 2 Y-coordinate {m}
    12,                      !- Vertex 2 Z-coordinate {m}
    15,                      !- Vertex 3 X-coordinate {m}
    60,                      !- Vertex 3 Y-coordinate {m}
    0,                       !- Vertex 3 Z-coordinate {m}
    0,                       !- Vertex 4 X-coordinate {m}
    60,                      !- Vertex 4 Y-coordinate {m}
    0;                       !- Vertex 4 Z-coordinate {m}

BuildingSurface:Detailed,
    IW_Barriere_Sued,        !- Name
    Wall,                    !- Surface Type
    Innenwand,               !- Construction Name
    Zone_Sued,               !- Zone Name
    ,                        !- Space Name
    Surface,                 !- Outside Boundary Condition
    IW_Barriere_Nord,        !- Outside Boundary Condition Object
    NoSun,                   !- Sun Exposure
    NoWind,                  !- Wind Exposure
    0,                       !- View Factor to Ground
    4,                       !- Number of Vertices
    0,                       !- Vertex 1 X-coordinate {m}
    30,                      !- Vertex 1 Y-coordinate {m}
    12,                      !- Vertex 1 Z-coordinate {m}
    15,                      !- Vertex 2 X-coordinate {m}
    30,                      !- Vertex 2 Y-coordinate {m}
    12,                      !- Vertex 2 Z-coordinate {m}
    15,                      !- Vertex 3 X-coordinate {m}
    30,                      !- Vertex 3 Y-coordinate {m}
    0,                       !- Vertex 3 Z-coordinate {m}
    0,                       !- Vertex 4 X-coordinate {m}
    30,                      !- Vertex 4 Y-coordinate {m}
    0;                       !- Vertex 4 Z-coordinate {m}

BuildingSurface:Detailed,
    IW_Barriere_Nord,        !- Name
    Wall,                    !- Surface Type
    Innenwand,               !- Construction Name
    Zone_Nord,               !- Zone Name
    ,                        !- Space Name
    Surface,                 !- Outside Boundary Condition
    IW_Barriere_Sued,        !- Outside Boundary Condition Object
    NoSun,                   !- Sun Exposure
    NoWind,                  !- Wind Exposure
    0,                       !- View Factor to Ground
    4,                       !- Number of Vertices
    15,                      !- Vertex 1 X-coordinate {m}
    30,                      !- Vertex 1 Y-coordinate {m}
    12,                      !- Vertex 1 Z-coordinate {m}
    0,                       !- Vertex 2 X-coordinate {m}
    30,                      !- Vertex 2 Y-coordinate {m}
    12,                      !- Vertex 2 Z-coordinate {m}
    0,                       !- Vertex 3 X-coordinate {m}
    30,                      !- Vertex 3 Y-coordinate {m}
    0,                       !- Vertex 3 Z-coordinate {m}
    15,                      !- Vertex 4 X-coordinate {m}
    30,                      !- Vertex 4 Y-coordinate {m}
    0;                       !- Vertex 4 Z-coordinate {m}


!-   ===========  ALL OBJECTS IN CLASS: FENESTRATIONSURFACE:DETAILED ===========

FenestrationSurface:Detailed,
    gate 1,                  !- Name
    Window,                  !- Surface Type
    Tor,                     !- Construction Name
    AW_Sued,                 !- Building Surface Name
    ,                        !- Outside Boundary Condition Object
    ,                        !- View Factor to Ground
    ,                        !- Frame and Divider Name
    ,                        !- Multiplier
    4,                       !- Number of Vertices
    4,                       !- Vertex 1 X-coordinate {m}
    0,                       !- Vertex 1 Y-coordinate {m}
    3,                       !- Vertex 1 Z-coordinate {m}
    1,                       !- Vertex 2 X-coordinate {m}
    0,                       !- Vertex 2 Y-coordinate {m}
    3,                       !- Vertex 2 Z-coordinate {m}
    1,                       !- Vertex 3 X-coordinate {m}
    0,                       !- Vertex 3 Y-coordinate {m}
    0,                       !- Vertex 3 Z-coordinate {m}
    4,                       !- Vertex 4 X-coordinate {m}
    0,                       !- Vertex 4 Y-coordinate {m}
    0;                       !- Vertex 4 Z-coordinate {m}

FenestrationSurface:Detailed,
    gate 2,                  !- Name
    Window,                  !- Surface Type
    Tor,                     !- Construction Name
    AW_Sued,                 !- Building Surface Name
    ,                        !- Outside Boundary Condition Object
    ,                        !- View Factor to Ground
    ,                        !- Frame and Divider Name
    ,                        !- Multiplier
    4,                       !- Number of Vertices
    9,                       !- Vertex 1 X-coordinate {m}
    0,                       !- Vertex 1 Y-coordinate {m}
    3,                       !- Vertex 1 Z-coordinate {m}
    6,                       !- Vertex 2 X-coordinate {m}
    0,                       !- Vertex 2 Y-coordinate {m}
    3,                       !- Vertex 2 Z-coordinate {m}
    6,                       !- Vertex 3 X-coordinate {m}
    0,                       !- Vertex 3 Y-coordinate {m}
    0,                       !- Vertex 3 Z-coordinate {m}
    9,                       !- Vertex 4 X-coordinate {m}
    0,                       !- Vertex 4 Y-coordinate {m}
    0;                       !- Vertex 4 Z-coordinate {m}

FenestrationSurface:Detailed,
    gate 3,                  !- Name
    Window,                  !- Surface Type
    Tor,                     !- Construction Name
    AW_Sued,                 !- Building Surface Name
    ,                        !- Outside Boundary Condition Object
    ,                        !- View Factor to Ground
    ,                        !- Frame and Divider Name
    ,                        !- Multiplier
    4,                       !- Number of Vertices
    14,                      !- Vertex 1 X-coordinate {m}
    0,                       !- Vertex 1 Y-coordinate {m}
    3,                       !- Vertex 1 Z-coordinate {m}
    11,                      !- Vertex 2 X-coordinate {m}
    0,                       !- Vertex 2 Y-coordinate {m}
    3,                       !- Vertex 2 Z-coordinate {m}
    11,                      !- Vertex 3 X-coordinate {m}
    0,                       !- Vertex 3 Y-coordinate {m}
    0,                       !- Vertex 3 Z-coordinate {m}
    14,                      !- Vertex 4 X-coordinate {m}
    0,                       !- Vertex 4 Y-coordinate {m}
    0;                       !- Vertex 4 Z-coordinate {m}

FenestrationSurface:Detailed,
    gate 4,                  !- Name
    Window,                  !- Surface Type
    Tor,                     !- Construction Name
    AW_Nord,                 !- Building Surface Name
    ,                        !- Outside Boundary Condition Object
    ,                        !- View Factor to Ground
    ,                        !- Frame and Divider Name
    ,                        !- Multiplier
    4,                       !- Number of Vertices
    1,                       !- Vertex 1 X-coordinate {m}
    60,                      !- Vertex 1 Y-coordinate {m}
    3,                       !- Vertex 1 Z-coordinate {m}
    4,                       !- Vertex 2 X-coordinate {m}
    60,                      !- Vertex 2 Y-coordinate {m}
    3,                       !- Vertex 2 Z-coordinate {m}
    4,                       !- Vertex 3 X-coordinate {m}
    60,                      !- Vertex 3 Y-coordinate {m}
    0,                       !- Vertex 3 Z-coordinate {m}
    1,                       !- Vertex 4 X-coordinate {m}
    60,                      !- Vertex 4 Y-coordinate {m}
    0;                       !- Vertex 4 Z-coordinate {m}

FenestrationSurface:Detailed,
    gate 5,                  !- Name
    Window,                  !- Surface Type
    Tor,                     !- Construction Name
    AW_Nord,                 !- Building Surface Name
    ,                        !- Outside Boundary Condition Object
    ,                        !- View Factor to Ground
    ,                        !- Frame and Divider Name
    ,                        !- Multiplier
    4,                       !- Number of Vertices
    6,                       !- Vertex 1 X-coordinate {m}
    60,                      !- Vertex 1 Y-coordinate {m}
    3,                       !- Vertex 1 Z-coordinate {m}
    9,                       !- Vertex 2 X-coordinate {m}
    60,                      !- Vertex 2 Y-coordinate {m}
    3,                       !- Vertex 2 Z-coordinate {m}
    9,                       !- Vertex 3 X-coordinate {m}
    60,                      !- Vertex 3 Y-coordinate {m}
    0,                       !- Vertex 3 Z-coordinate {m}
    6,                       !- Vertex 4 X-coordinate {m}
    60,                      !- Vertex 4 Y-coordinate {m}
    0;                       !- Vertex 4 Z-coordinate {m}

FenestrationSurface:Detailed,
    gate 6,                  !- Name
    Window,                  !- Surface Type
    Tor,                     !- Construction Name
    AW_Nord,                 !- Building Surface Name
    ,                        !- Outside Boundary Condition Object
    ,                        !- View Factor to Ground
    ,                        !- Frame and Divider Name
    ,                        !- Multiplier
    4,                       !- Number of Vertices
    11,                      !- Vertex 1 X-coordinate {m}
    60,                      !- Vertex 1 Y-coordinate {m}
    3,                       !- Vertex 1 Z-coordinate {m}
    14,                      !- Vertex 2 X-coordinate {m}
    60,                      !- Vertex 2 Y-coordinate {m}
    3,                       !- Vertex 2 Z-coordinate {m}
    14,                      !- Vertex 3 X-coordinate {m}
    60,                      !- Vertex 3 Y-coordinate {m}
    0,                       !- Vertex 3 Z-coordinate {m}
    11,                      !- Vertex 4 X-coordinate {m}
    60,                      !- Vertex 4 Y-coordinate {m}
    0;                       !- Vertex 4 Z-coordinate {m}

FenestrationSurface:Detailed,
    Spalt_Sued,              !- Name
    Door,                    !- Surface Type
    Innenwand,               !- Construction Name
    IW_Barriere_Sued,        !- Building Surface Name
    Spalt_Nord,              !- Outside Boundary Condition Object
    ,                        !- View Factor to Ground
    ,                        !- Frame and Divider Name
    ,                        !- Multiplier
    4,                       !- Number of Vertices
    0.01,                    !- Vertex 1 X-coordinate {m}
    30,                      !- Vertex 1 Y-coordinate {m}
    2.00267,                 !- Vertex 1 Z-coordinate {m}
    14.99,                   !- Vertex 2 X-coordinate {m}
    30,                      !- Vertex 2 Y-coordinate {m}
    2.00267,                 !- Vertex 2 Z-coordinate {m}
    14.99,                   !- Vertex 3 X-coordinate {m}
    30,                      !- Vertex 3 Y-coordinate {m}
    0,                       !- Vertex 3 Z-coordinate {m}
    0.01,                    !- Vertex 4 X-coordinate {m}
    30,                      !- Vertex 4 Y-coordinate {m}
    0;                       !- Vertex 4 Z-coordinate {m}

FenestrationSurface:Detailed,
    Spalt_Nord,              !- Name
    Door,                    !- Surface Type
    Innenwand,               !- Construction Name
    IW_Barriere_Nord,        !- Building Surface Name
    Spalt_Sued,              !- Outside Boundary Condition Object
    ,                        !- View Factor to Ground
    ,                        !- Frame and Divider Name
    ,                        !- Multiplier
    4,                       !- Number of Vertices
    14.99,                   !- Vertex 1 X-coordinate {m}
    30,                      !- Vertex 1 Y-coordinate {m}
    2.00267,                 !- Vertex 1 Z-coordinate {m}
    0.01,                    !- Vertex 2 X-coordinate {m}
    30,                      !- Vertex 2 Y-coordinate {m}
    2.00267,                 !- Vertex 2 Z-coordinate {m}
    0.01,                    !- Vertex 3 X-coordinate {m}
    30,                      !- Vertex 3 Y-coordinate {m}
    0,                       !- Vertex 3 Z-coordinate {m}
    14.99,                   !- Vertex 4 X-coordinate {m}
    30,                      !- Vertex 4 Y-coordinate {m}
    0;                       !- Vertex 4 Z-coordinate {m}


!-   ===========  ALL OBJECTS IN CLASS: ZONEVENTILATION:DESIGNFLOWRATE ===========

ZoneVentilation:DesignFlowRate,
    DFR_DOE-2,               !- Name
    Zone_Sued,               !- Zone or ZoneList or Space or SpaceList Name
    Sch_Tor_auf,             !- Schedule Name
    Flow/Zone,               !- Design Flow Rate Calculation Method
    18.08642,                !- Design Flow Rate {m3/s}
    ,                        !- Flow Rate per Floor Area {m3/s-m2}
    ,                        !- Flow Rate per Person {m3/s-person}
    ,                        !- Air Changes per Hour {1/hr}
    Natural,                 !- Ventilation Type
    0.0,                     !- Fan Pressure Rise {Pa}
    1.0,                     !- Fan Total Efficiency
    0,                       !- Constant Term Coefficient
    0,                       !- Temperature Term Coefficient
    0.224,                   !- Velocity Term Coefficient
    0,                       !- Velocity Squared Term Coefficient
    -100.0,                  !- Minimum Indoor Temperature {C}
    ,                        !- Minimum Indoor Temperature Schedule Name
    100.0,                   !- Maximum Indoor Temperature {C}
    ,                        !- Maximum Indoor Temperature Schedule Name
    -100.0,                  !- Delta Temperature {deltaC}
    ,                        !- Delta Temperature Schedule Name
    -100.0,                  !- Minimum Outdoor Temperature {C}
    ,                        !- Minimum Outdoor Temperature Schedule Name
    100.0,                   !- Maximum Outdoor Temperature {C}
    ,                        !- Maximum Outdoor Temperature Schedule Name
    40.0;                    !- Maximum Wind Speed {m/s}


!-   ===========  ALL OBJECTS IN CLASS: ZONECROSSMIXING ===========

ZoneCrossMixing,
    Spalt_CrossMixing,       !- Name
    Zone_Nord,               !- Zone or Space Name
    Sch_Tor_auf,             !- Schedule Name
    Flow/Zone,               !- Design Flow Rate Calculation Method
    18.08642,                !- Design Flow Rate {m3/s}
    ,                        !- Flow Rate per Floor Area {m3/s-m2}
    ,                        !- Flow Rate per Person {m3/s-person}
    ,                        !- Air Changes per Hour {1/hr}
    Zone_Sued,               !- Source Zone or Space Name
    0.0;                     !- Delta Temperature {deltaC}


!-   ===========  ALL OBJECTS IN CLASS: ZONECONTROL:THERMOSTAT ===========

ZoneControl:Thermostat,
    Thermostat_Sued,         !- Name
    Zone_Sued,               !- Zone or ZoneList Name
    Sch_Regelungsart,        !- Control Type Schedule Name
    ThermostatSetpoint:SingleHeatingOrCooling,  !- Control 1 Object Type
    Sollwert_iso_Sued;       !- Control 1 Name

ZoneControl:Thermostat,
    Thermostat_Nord,         !- Name
    Zone_Nord,               !- Zone or ZoneList Name
    Sch_Regelungsart,        !- Control Type Schedule Name
    ThermostatSetpoint:SingleHeatingOrCooling,  !- Control 1 Object Type
    Sollwert_iso_Nord;       !- Control 1 Name


!-   ===========  ALL OBJECTS IN CLASS: THERMOSTATSETPOINT:SINGLEHEATINGORCOOLING ===========

ThermostatSetpoint:SingleHeatingOrCooling,
    Sollwert_iso_Sued,       !- Name
    Sch_T_iso;               !- Setpoint Temperature Schedule Name

ThermostatSetpoint:SingleHeatingOrCooling,
    Sollwert_iso_Nord,       !- Name
    Sch_T_iso;               !- Setpoint Temperature Schedule Name


!-   ===========  ALL OBJECTS IN CLASS: ZONEHVAC:IDEALLOADSAIRSYSTEM ===========

ZoneHVAC:IdealLoadsAirSystem,
    IdealLoads_Sued,         !- Name
    ,                        !- Availability Schedule Name
    Inlet_Node_Sued,         !- Zone Supply Air Node Name
    ,                        !- Zone Exhaust Air Node Name
    ,                        !- System Inlet Air Node Name
    50,                      !- Maximum Heating Supply Air Temperature {C}
    13,                      !- Minimum Cooling Supply Air Temperature {C}
    0.0156,                  !- Maximum Heating Supply Air Humidity Ratio {kgWater/kgDryAir}
    0.0077,                  !- Minimum Cooling Supply Air Humidity Ratio {kgWater/kgDryAir}
    NoLimit,                 !- Heating Limit
    ,                        !- Maximum Heating Air Flow Rate {m3/s}
    ,                        !- Maximum Sensible Heating Capacity {W}
    NoLimit,                 !- Cooling Limit
    ,                        !- Maximum Cooling Air Flow Rate {m3/s}
    ,                        !- Maximum Total Cooling Capacity {W}
    ,                        !- Heating Availability Schedule Name
    ,                        !- Cooling Availability Schedule Name
    None,                    !- Dehumidification Control Type
    ,                        !- Cooling Sensible Heat Ratio {dimensionless}
    None,                    !- Humidification Control Type
    ,                        !- Design Specification Outdoor Air Object Name
    ,                        !- Outdoor Air Inlet Node Name
    None,                    !- Demand Controlled Ventilation Type
    NoEconomizer,            !- Outdoor Air Economizer Type
    None,                    !- Heat Recovery Type
    ,                        !- Sensible Heat Recovery Effectiveness {dimensionless}
    ;                        !- Latent Heat Recovery Effectiveness {dimensionless}

ZoneHVAC:IdealLoadsAirSystem,
    IdealLoads_Nord,         !- Name
    ,                        !- Availability Schedule Name
    Inlet_Node_Nord,         !- Zone Supply Air Node Name
    ,                        !- Zone Exhaust Air Node Name
    ,                        !- System Inlet Air Node Name
    50,                      !- Maximum Heating Supply Air Temperature {C}
    13,                      !- Minimum Cooling Supply Air Temperature {C}
    0.0156,                  !- Maximum Heating Supply Air Humidity Ratio {kgWater/kgDryAir}
    0.0077,                  !- Minimum Cooling Supply Air Humidity Ratio {kgWater/kgDryAir}
    NoLimit,                 !- Heating Limit
    ,                        !- Maximum Heating Air Flow Rate {m3/s}
    ,                        !- Maximum Sensible Heating Capacity {W}
    NoLimit,                 !- Cooling Limit
    ,                        !- Maximum Cooling Air Flow Rate {m3/s}
    ,                        !- Maximum Total Cooling Capacity {W}
    ,                        !- Heating Availability Schedule Name
    ,                        !- Cooling Availability Schedule Name
    None,                    !- Dehumidification Control Type
    ,                        !- Cooling Sensible Heat Ratio {dimensionless}
    None,                    !- Humidification Control Type
    ,                        !- Design Specification Outdoor Air Object Name
    ,                        !- Outdoor Air Inlet Node Name
    None,                    !- Demand Controlled Ventilation Type
    NoEconomizer,            !- Outdoor Air Economizer Type
    None,                    !- Heat Recovery Type
    ,                        !- Sensible Heat Recovery Effectiveness {dimensionless}
    ;                        !- Latent Heat Recovery Effectiveness {dimensionless}


!-   ===========  ALL OBJECTS IN CLASS: ZONEHVAC:EQUIPMENTLIST ===========

ZoneHVAC:EquipmentList,
    EquipmentList_Sued,      !- Name
    SequentialLoad,          !- Load Distribution Scheme
    ZoneHVAC:IdealLoadsAirSystem,  !- Zone Equipment 1 Object Type
    IdealLoads_Sued,         !- Zone Equipment 1 Name
    1,                       !- Zone Equipment 1 Cooling Sequence
    1,                       !- Zone Equipment 1 Heating or No-Load Sequence
    ,                        !- Zone Equipment 1 Sequential Cooling Fraction Schedule Name
    ;                        !- Zone Equipment 1 Sequential Heating Fraction Schedule Name

ZoneHVAC:EquipmentList,
    EquipmentList_Nord,      !- Name
    SequentialLoad,          !- Load Distribution Scheme
    ZoneHVAC:IdealLoadsAirSystem,  !- Zone Equipment 1 Object Type
    IdealLoads_Nord,         !- Zone Equipment 1 Name
    1,                       !- Zone Equipment 1 Cooling Sequence
    1,                       !- Zone Equipment 1 Heating or No-Load Sequence
    ,                        !- Zone Equipment 1 Sequential Cooling Fraction Schedule Name
    ;                        !- Zone Equipment 1 Sequential Heating Fraction Schedule Name


!-   ===========  ALL OBJECTS IN CLASS: ZONEHVAC:EQUIPMENTCONNECTIONS ===========

ZoneHVAC:EquipmentConnections,
    Zone_Sued,               !- Zone Name
    EquipmentList_Sued,      !- Zone Conditioning Equipment List Name
    Inlet_Node_Sued,         !- Zone Air Inlet Node or NodeList Name
    ,                        !- Zone Air Exhaust Node or NodeList Name
    Zone_Node_Sued,          !- Zone Air Node Name
    Return_Node_Sued;        !- Zone Return Air Node or NodeList Name

ZoneHVAC:EquipmentConnections,
    Zone_Nord,               !- Zone Name
    EquipmentList_Nord,      !- Zone Conditioning Equipment List Name
    Inlet_Node_Nord,         !- Zone Air Inlet Node or NodeList Name
    ,                        !- Zone Air Exhaust Node or NodeList Name
    Zone_Node_Nord,          !- Zone Air Node Name
    Return_Node_Nord;        !- Zone Return Air Node or NodeList Name


!-   ===========  ALL OBJECTS IN CLASS: OUTPUT:VARIABLEDICTIONARY ===========

Output:VariableDictionary,
    IDF,                     !- Key Field
    Unsorted;                !- Sort Option


!-   ===========  ALL OBJECTS IN CLASS: OUTPUT:TABLE:SUMMARYREPORTS ===========

Output:Table:SummaryReports,
    AllSummary;              !- Report 1 Name


!-   ===========  ALL OBJECTS IN CLASS: OUTPUTCONTROL:TABLE:STYLE ===========

OutputControl:Table:Style,
    HTML;                    !- Column Separator


!-   ===========  ALL OBJECTS IN CLASS: OUTPUT:VARIABLE ===========

Output:Variable,
    *,                       !- Key Value
    Site Wind Speed,         !- Variable Name
    Timestep;                !- Reporting Frequency

Output:Variable,
    *,                       !- Key Value
    Site Wind Direction,     !- Variable Name
    Timestep;                !- Reporting Frequency

Output:Variable,
    *,                       !- Key Value
    Site Outdoor Air Drybulb Temperature,  !- Variable Name
    Timestep;                !- Reporting Frequency

Output:Variable,
    *,                       !- Key Value
    Zone Outdoor Air Wind Speed,  !- Variable Name
    Timestep;                !- Reporting Frequency

Output:Variable,
    *,                       !- Key Value
    Zone Outdoor Air Drybulb Temperature,  !- Variable Name
    Timestep;                !- Reporting Frequency

Output:Variable,
    *,                       !- Key Value
    Zone Mean Air Temperature,  !- Variable Name
    Timestep;                !- Reporting Frequency

Output:Variable,
    *,                       !- Key Value
    Zone Ideal Loads Supply Air Total Heating Rate,  !- Variable Name
    Timestep;                !- Reporting Frequency

Output:Variable,
    *,                       !- Key Value
    Zone Ideal Loads Supply Air Total Cooling Rate,  !- Variable Name
    Timestep;                !- Reporting Frequency

Output:Variable,
    *,                       !- Key Value
    Zone Ventilation Current Density Volume Flow Rate,  !- Variable Name
    Timestep;                !- Reporting Frequency

Output:Variable,
    *,                       !- Key Value
    Zone Ventilation Standard Density Volume Flow Rate,  !- Variable Name
    Timestep;                !- Reporting Frequency

Output:Variable,
    *,                       !- Key Value
    Zone Ventilation Current Density Air Change Rate,  !- Variable Name
    Timestep;                !- Reporting Frequency

Output:Variable,
    *,                       !- Key Value
    Zone Ventilation Mass Flow Rate,  !- Variable Name
    Timestep;                !- Reporting Frequency

Output:Variable,
    *,                       !- Key Value
    Zone Ventilation Sensible Heat Loss Energy,  !- Variable Name
    Timestep;                !- Reporting Frequency

Output:Variable,
    *,                       !- Key Value
    Zone Mixing Current Density Volume Flow Rate,  !- Variable Name
    Timestep;                !- Reporting Frequency

Output:Variable,
    *,                       !- Key Value
    Zone Mixing Standard Density Volume Flow Rate,  !- Variable Name
    Timestep;                !- Reporting Frequency

Output:Variable,
    *,                       !- Key Value
    Zone Mixing Mass Flow Rate,  !- Variable Name
    Timestep;                !- Reporting Frequency

Output:Variable,
    *,                       !- Key Value
    Zone Mixing Sensible Heat Loss Energy,  !- Variable Name
    Timestep;                !- Reporting Frequency

Output:Variable,
    *,                       !- Key Value
    Zone Mixing Sensible Heat Gain Energy,  !- Variable Name
    Timestep;                !- Reporting Frequency


!-   ===========  ALL OBJECTS IN CLASS: OUTPUT:SQLITE ===========

Output:SQLite,
    SimpleAndTabular;        !- Option Type


!-   ===========  ALL OBJECTS IN CLASS: OUTPUT:DIAGNOSTICS ===========

Output:Diagnostics,
    DisplayAllWarnings,      !- Key 1
    DisplayAdvancedReportVariables;  !- Key 2

