! ==============================================================================
! AFN_E+_Jahr.idf
! ==============================================================================
! Modellansatz      : AirflowNetwork, MultiZone:Component:DetailedOpening, SurfaceAverageCalculation
! Geometrie         : Hallenstueck 15 x 60 x 12 m, A = 900 m2, V = 10800 m3
! Tore              : alle sechs, schedulegesteuert
! Gebaeudedrehung   : 0 Grad (Tore in Sued/Nord)
!                     Tor 1-3 (AW_Sued) <- AN_1..3, Tor 4-6 (AW_Nord) <- AB_1..3
! Wetterdatei       : DEU_Munich.108660_IWEC.epw (Stundenwerte, unveraendert)
! Windprofil        : EnergyPlus-Standard (Terrain Country)
! Zeitraum          : 1.1. bis 31.12.
! Timestep          : 60 pro Stunde
! Sollwert          : 17 Grad C konstant, keine Nachtabsenkung
! Auswertung        : Oktober bis April, 5088 h
! EnergyPlus        : 25.2
!
! Erzeugt von make_heizperiode.py. Setzungen siehe README_Heizperiode.md.
!
! STUFE 2 - Referenzlauf AFN_E+.
! Crack-Koeffizient C = 0.023715 kg/s bei 1 Pa (aus Stufe 1).
! 
! Liefert Q_AFN je Zeitschritt fuer die Kalibrierung der DFR-Objekte:
!   Q_design = Summe(Q_AFN * dt) / Summe(Summe_i(s_i) * dt)
! mit s_i dem Schedulewert von Tor i. Damit trifft DFR_DEFAULT den
! kumulierten Aussenluftaustausch exakt; BLAST und DOE-2 weichen allein
! durch ihre Koeffizientensaetze ab (Innen-Spanne fuer 6.3.2).
! ==============================================================================


!- ============================================================================
!-   VERSION, SIMULATIONCONTROL, BUILDING, TIMESTEP
!- ============================================================================

Version,
    25.2;                    !- Version Identifier

SimulationControl,
    No,                      !- Do Zone Sizing Calculation
    No,                      !- Do System Sizing Calculation
    No,                      !- Do Plant Sizing Calculation
    No,                      !- Run Simulation for Sizing Periods
    Yes,                     !- Run Simulation for Weather File Run Periods
    ,                        !- Do HVAC Sizing Simulation for Sizing Periods
    ;                        !- Maximum Number of HVAC Sizing Simulation Passes

!- Die Anstroemrichtung kommt aus der unveraenderten Wetterdatei, nicht
!- mehr aus einer konstruierten EPW wie in Kapitel 5. Die Gebaeudedrehung
!- betraegt 0 Grad: Toroeffnungen in Sued- und Nordfassade.
!- Mitgedreht sind zusaetzlich Effective Angle (WSOA) und Azimuth Angle of
!- Long Axis (AFN) - beide folgen North Axis nicht selbsttaetig.
Building,
    Halle_15x60x12,          !- Name
    0,                       !- North Axis {deg}
    Country,                 !- Terrain
    ,                        !- Loads Convergence Tolerance Value {W}
    ,                        !- Temperature Convergence Tolerance Value {deltaC}
    ,                        !- Solar Distribution
    ,                        !- Maximum Number of Warmup Days
    6;                       !- Minimum Number of Warmup Days

Timestep,
    60;                      !- Number of Timesteps per Hour


!- ============================================================================
!-   SITE
!- ============================================================================

Site:Location,
    Muenchen_Bayern_DEU,     !- Name
    48.13,                   !- Latitude {deg}
    11.70,                   !- Longitude {deg}
    1,                       !- Time Zone {hr}
    529;                     !- Elevation {m}

!- Kein Site:WeatherStation und kein Site:HeightVariation. Das flache
!- Windprofil aus Kapitel 5 war eine Verifikationsmassnahme, damit
!- Handrechnung, ZoneVentilation, WSOA und die AFN-External-Nodes dieselbe
!- Geschwindigkeit sehen. In Kapitel 6 gibt es keine Handrechnung mehr; ein
!- flaches Profil wuerde die Bezugshoehen der drei Modellansaetze kuenstlich
!- gleichsetzen und damit einen Teil der Zwischen-Spanne wegdefinieren.
!- Erdreichtemperatur = Sollwert minus 2 K = 15 Grad C, konstant ueber alle
!- zwoelf Monate. Quelle: EnergyPlus Input Output Reference, Abschnitt
!- Site:GroundTemperature:BuildingSurface: 'When considering a typical
!- commercial building in the USA, a reasonable default value is 2 C less
!- than the average indoor space temperature if the user elects to not run
!- either the Slab or Basement program.' Die dort ebenfalls genannten
!- ungestoerten Bodentemperaturen aus der Wetterdatei sind laut derselben
!- Quelle fuer Gebaeudeverluste ausdruecklich nicht geeignet.
!- Der Bodenanteil ist in allen fuenf Modellen identisch und faellt in der
!- Differenz zwischen den Modellen heraus, nicht aber im Absolutwert.
Site:GroundTemperature:BuildingSurface,
    15,                      !- January Ground Temperature {C}
    15,                      !- February Ground Temperature {C}
    15,                      !- March Ground Temperature {C}
    15,                      !- April Ground Temperature {C}
    15,                      !- May Ground Temperature {C}
    15,                      !- June Ground Temperature {C}
    15,                      !- July Ground Temperature {C}
    15,                      !- August Ground Temperature {C}
    15,                      !- September Ground Temperature {C}
    15,                      !- October Ground Temperature {C}
    15,                      !- November Ground Temperature {C}
    15;                      !- December Ground Temperature {C}


!- ============================================================================
!-   RUNPERIOD
!- ============================================================================

RunPeriod,
    Jahr,                    !- Name
    1,                       !- Begin Month
    1,                       !- Begin Day of Month
    ,                        !- Begin Year
    12,                      !- End Month
    31,                      !- End Day of Month
    ,                        !- End Year
    Thursday,                !- Day of Week for Start Day
    No,                      !- Use Weather File Holidays and Special Days
    No,                      !- Use Weather File Daylight Saving Period
    No,                      !- Apply Weekend Holiday Rule
    Yes,                     !- Use Weather File Rain Indicators
    Yes;                     !- Use Weather File Snow Indicators


!- ============================================================================
!-   SCHEDULES
!- ============================================================================

ScheduleTypeLimits,
    Fractional,              !- Name
    0,                       !- Lower Limit Value
    1,                       !- Upper Limit Value
    Continuous;              !- Numeric Type

ScheduleTypeLimits,
    Temperature,             !- Name
    -60,                     !- Lower Limit Value
    200,                     !- Upper Limit Value
    Continuous,              !- Numeric Type
    Temperature;             !- Unit Type

ScheduleTypeLimits,
    Control Type,            !- Name
    0,                       !- Lower Limit Value
    4,                       !- Upper Limit Value
    Discrete,                !- Numeric Type
    Control;                 !- Unit Type

Schedule:Constant,
    Sch_Immer_an,            !- Name
    Fractional,              !- Schedule Type Limits Name
    1.0;                     !- Hourly Value

!- Heizsollwert konstant, keine Nachtabsenkung. Begruendung: eine Absenkung
!- legt die Aufheizspitze auf den Schichtbeginn und damit genau auf den
!- Beginn des Torbetriebs. Spitzenlast (6.4.2) und Lastgradient (6.4.3)
!- wuerden dann eine Ueberlagerung aus Anlagenfahrweise und Torlueftung
!- messen statt der Torlueftung allein.
Schedule:Constant,
    Sch_T_soll,              !- Name
    Temperature,             !- Schedule Type Limits Name
    17;                      !- Hourly Value

Schedule:Constant,
    Sch_Regelungsart,        !- Name
    Control Type,            !- Schedule Type Limits Name
    1;                       !- Hourly Value

!- Nutzungsprofil der internen Gewinne, uebernommen aus AFN_paper_Vorlage.idf
!- (Schedule 'Geraete': Werktags 07:00 bis 16:00).
Schedule:Compact,
    Sch_Geraete,             !- Name
    Fractional,              !- Schedule Type Limits Name
    Through: 12/31,
    For: Weekdays,
    Until: 07:00,0.0,
    Until: 16:00,1.0,
    Until: 24:00,0.0,
    For: AllOtherDays,
    Until: 24:00,0.0;

!- Tor-Schedules, uebernommen aus alle_tore.idf (gate_scheduling 0.1.0, Seed 42).
!- Minutenaufloesung; wirkt nur bei Timestep 60.

ScheduleTypeLimits,
    Fraction,                !- Name
    0.0,                     !- Lower Limit Value
    1.0,                     !- Upper Limit Value
    Continuous;              !- Numeric Type

Schedule:Compact,
    AN_1_Tor_Schedule,       !- Name
    Fraction,                !- Schedule Type Limits Name
    Through: 1/1,
    For: AllDays,
    Until: 24:00,0.000,
    Through: 1/2,
    For: AllDays,
    Until: 24:00,0.000,
    Through: 1/3,
    For: AllDays,
    Until: 24:00,0.000,
    Through: 1/4,
    For: AllDays,
    Until: 24:00,0.000,
    Through: 1/5,
    For: AllDays,
    Until: 03:26,0.000,
    Until: 03:28,1.000,
    Until: 04:13,0.048,
    Until: 04:18,1.000,
    Until: 07:12,0.000,
    Until: 07:14,1.000,
    Until: 07:59,0.048,
    Until: 08:04,1.000,
    Until: 16:47,0.000,
    Until: 16:49,1.000,
    Until: 17:34,0.048,
    Until: 17:39,1.000,
    Until: 24:00,0.000,
    Through: 1/6,
    For: AllDays,
    Until: 02:05,0.000,
    Until: 02:07,1.000,
    Until: 02:52,0.048,
    Until: 02:57,1.000,
    Until: 03:23,0.000,
    Until: 03:25,1.000,
    Until: 04:10,0.048,
    Until: 04:15,1.000,
    Until: 08:42,0.000,
    Until: 08:44,1.000,
    Until: 09:29,0.048,
    Until: 09:34,1.000,
    Until: 10:55,0.000,
    Until: 10:57,1.000,
    Until: 11:42,0.048,
    Until: 11:47,1.000,
    Until: 12:03,0.000,
    Until: 12:05,1.000,
    Until: 12:50,0.048,
    Until: 12:55,1.000,
    Until: 24:00,0.000,
    Through: 1/7,
    For: AllDays,
    Until: 01:12,0.000,
    Until: 01:14,1.000,
    Until: 01:59,0.048,
    Until: 02:04,1.000,
    Until: 02:05,0.000,
    Until: 02:07,1.000,
    Until: 02:52,0.048,
    Until: 02:57,1.000,
    Until: 02:58,0.000,
    Until: 03:00,1.000,
    Until: 03:45,0.048,
    Until: 03:50,1.000,
    Until: 11:33,0.000,
    Until: 11:35,1.000,
    Until: 12:20,0.048,
    Until: 12:25,1.000,
    Until: 13:15,0.000,
    Until: 13:17,1.000,
    Until: 14:02,0.048,
    Until: 14:07,1.000,
    Until: 16:15,0.000,
    Until: 16:17,1.000,
    Until: 17:02,0.048,
    Until: 17:07,1.000,
    Until: 24:00,0.000,
    Through: 1/8,
    For: AllDays,
    Until: 00:15,0.000,
    Until: 00:17,1.000,
    Until: 01:02,0.048,
    Until: 01:07,1.000,
    Until: 01:15,0.000,
    Until: 01:17,1.000,
    Until: 02:02,0.048,
    Until: 02:07,1.000,
    Until: 03:28,0.000,
    Until: 03:30,1.000,
    Until: 04:15,0.048,
    Until: 04:20,1.000,
    Until: 07:34,0.000,
    Until: 07:36,1.000,
    Until: 08:21,0.048,
    Until: 08:26,1.000,
    Until: 10:44,0.000,
    Until: 10:46,1.000,
    Until: 11:31,0.048,
    Until: 11:36,1.000,
    Until: 12:22,0.000,
    Until: 12:24,1.000,
    Until: 13:09,0.048,
    Until: 13:14,1.000,
    Until: 24:00,0.000,
    Through: 1/9,
    For: AllDays,
    Until: 01:55,0.000,
    Until: 01:57,1.000,
    Until: 02:42,0.048,
    Until: 02:47,1.000,
    Until: 02:48,0.000,
    Until: 02:50,1.000,
    Until: 03:35,0.048,
    Until: 03:40,1.000,
    Until: 05:35,0.000,
    Until: 05:37,1.000,
    Until: 06:22,0.048,
    Until: 06:27,1.000,
    Until: 06:38,0.000,
    Until: 06:40,1.000,
    Until: 07:25,0.048,
    Until: 07:30,1.000,
    Until: 11:29,0.000,
    Until: 11:31,1.000,
    Until: 12:16,0.048,
    Until: 12:21,1.000,
    Until: 13:04,0.000,
    Until: 13:06,1.000,
    Until: 13:51,0.048,
    Until: 13:56,1.000,
    Until: 17:28,0.000,
    Until: 17:30,1.000,
    Until: 18:15,0.048,
    Until: 18:20,1.000,
    Until: 24:00,0.000,
    Through: 1/10,
    For: AllDays,
    Until: 24:00,0.000,
    Through: 1/11,
    For: AllDays,
    Until: 24:00,0.000,
    Through: 1/12,
    For: AllDays,
    Until: 00:59,0.000,
    Until: 01:01,1.000,
    Until: 01:46,0.048,
    Until: 01:51,1.000,
    Until: 03:16,0.000,
    Until: 03:18,1.000,
    Until: 04:03,0.048,
    Until: 04:08,1.000,
    Until: 07:22,0.000,
    Until: 07:24,1.000,
    Until: 08:09,0.048,
    Until: 08:14,1.000,
    Until: 11:47,0.000,
    Until: 11:49,1.000,
    Until: 12:34,0.048,
    Until: 12:39,1.000,
    Until: 16:31,0.000,
    Until: 16:33,1.000,
    Until: 17:18,0.048,
    Until: 17:23,1.000,
    Until: 24:00,0.000,
    Through: 1/13,
    For: AllDays,
    Until: 01:09,0.000,
    Until: 01:11,1.000,
    Until: 01:56,0.048,
    Until: 02:01,1.000,
    Until: 03:58,0.000,
    Until: 04:00,1.000,
    Until: 04:45,0.048,
    Until: 04:50,1.000,
    Until: 07:12,0.000,
    Until: 07:14,1.000,
    Until: 07:59,0.048,
    Until: 08:04,1.000,
    Until: 10:38,0.000,
    Until: 10:40,1.000,
    Until: 11:25,0.048,
    Until: 11:30,1.000,
    Until: 11:31,0.000,
    Until: 11:33,1.000,
    Until: 12:18,0.048,
    Until: 12:23,1.000,
    Until: 13:32,0.000,
    Until: 13:34,1.000,
    Until: 14:19,0.048,
    Until: 14:24,1.000,
    Until: 24:00,0.000,
    Through: 1/14,
    For: AllDays,
    Until: 01:25,0.000,
    Until: 01:27,1.000,
    Until: 02:12,0.048,
    Until: 02:17,1.000,
    Until: 02:57,0.000,
    Until: 02:59,1.000,
    Until: 03:44,0.048,
    Until: 03:49,1.000,
    Until: 03:50,0.000,
    Until: 03:52,1.000,
    Until: 04:37,0.048,
    Until: 04:42,1.000,
    Until: 05:27,0.000,
    Until: 05:29,1.000,
    Until: 06:14,0.048,
    Until: 06:19,1.000,
    Until: 07:05,0.000,
    Until: 07:07,1.000,
    Until: 07:52,0.048,
    Until: 07:57,1.000,
    Until: 10:52,0.000,
    Until: 10:54,1.000,
    Until: 11:39,0.048,
    Until: 11:44,1.000,
    Until: 12:08,0.000,
    Until: 12:10,1.000,
    Until: 12:55,0.048,
    Until: 13:00,1.000,
    Until: 17:14,0.000,
    Until: 17:16,1.000,
    Until: 18:01,0.048,
    Until: 18:06,1.000,
    Until: 24:00,0.000,
    Through: 1/15,
    For: AllDays,
    Until: 02:30,0.000,
    Until: 02:32,1.000,
    Until: 03:17,0.048,
    Until: 03:22,1.000,
    Until: 04:15,0.000,
    Until: 04:17,1.000,
    Until: 05:02,0.048,
    Until: 05:07,1.000,
    Until: 07:19,0.000,
    Until: 07:21,1.000,
    Until: 08:06,0.048,
    Until: 08:11,1.000,
    Until: 12:08,0.000,
    Until: 12:10,1.000,
    Until: 12:55,0.048,
    Until: 13:00,1.000,
    Until: 13:43,0.000,
    Until: 13:45,1.000,
    Until: 14:30,0.048,
    Until: 14:35,1.000,
    Until: 16:25,0.000,
    Until: 16:27,1.000,
    Until: 17:12,0.048,
    Until: 17:17,1.000,
    Until: 24:00,0.000,
    Through: 1/16,
    For: AllDays,
    Until: 01:06,0.000,
    Until: 01:08,1.000,
    Until: 01:53,0.048,
    Until: 01:58,1.000,
    Until: 02:44,0.000,
    Until: 02:46,1.000,
    Until: 03:31,0.048,
    Until: 03:36,1.000,
    Until: 03:55,0.000,
    Until: 03:57,1.000,
    Until: 04:42,0.048,
    Until: 04:47,1.000,
    Until: 07:51,0.000,
    Until: 07:53,1.000,
    Until: 08:38,0.048,
    Until: 08:43,1.000,
    Until: 13:01,0.000,
    Until: 13:03,1.000,
    Until: 13:48,0.048,
    Until: 13:53,1.000,
    Until: 15:01,0.000,
    Until: 15:03,1.000,
    Until: 15:48,0.048,
    Until: 15:53,1.000,
    Until: 16:02,0.000,
    Until: 16:04,1.000,
    Until: 16:49,0.048,
    Until: 16:54,1.000,
    Until: 24:00,0.000,
    Through: 1/17,
    For: AllDays,
    Until: 24:00,0.000,
    Through: 1/18,
    For: AllDays,
    Until: 24:00,0.000,
    Through: 1/19,
    For: AllDays,
    Until: 01:58,0.000,
    Until: 02:00,1.000,
    Until: 02:45,0.048,
    Until: 02:50,1.000,
    Until: 03:33,0.000,
    Until: 03:35,1.000,
    Until: 04:20,0.048,
    Until: 04:25,1.000,
    Until: 07:24,0.000,
    Until: 07:26,1.000,
    Until: 08:11,0.048,
    Until: 08:16,1.000,
    Until: 10:17,0.000,
    Until: 10:19,1.000,
    Until: 11:04,0.048,
    Until: 11:09,1.000,
    Until: 24:00,0.000,
    Through: 1/20,
    For: AllDays,
    Until: 02:37,0.000,
    Until: 02:39,1.000,
    Until: 03:24,0.048,
    Until: 03:29,1.000,
    Until: 03:53,0.000,
    Until: 03:55,1.000,
    Until: 04:40,0.048,
    Until: 04:45,1.000,
    Until: 05:49,0.000,
    Until: 05:51,1.000,
    Until: 06:36,0.048,
    Until: 06:41,1.000,
    Until: 08:09,0.000,
    Until: 08:11,1.000,
    Until: 08:56,0.048,
    Until: 09:01,1.000,
    Until: 10:55,0.000,
    Until: 10:57,1.000,
    Until: 11:42,0.048,
    Until: 11:47,1.000,
    Until: 13:43,0.000,
    Until: 13:45,1.000,
    Until: 14:30,0.048,
    Until: 14:35,1.000,
    Until: 15:50,0.000,
    Until: 15:52,1.000,
    Until: 16:37,0.048,
    Until: 16:42,1.000,
    Until: 24:00,0.000,
    Through: 1/21,
    For: AllDays,
    Until: 01:56,0.000,
    Until: 01:58,1.000,
    Until: 02:43,0.048,
    Until: 02:48,1.000,
    Until: 04:20,0.000,
    Until: 04:22,1.000,
    Until: 05:07,0.048,
    Until: 05:12,1.000,
    Until: 06:01,0.000,
    Until: 06:03,1.000,
    Until: 06:48,0.048,
    Until: 06:53,1.000,
    Until: 12:11,0.000,
    Until: 12:13,1.000,
    Until: 12:58,0.048,
    Until: 13:03,1.000,
    Until: 17:13,0.000,
    Until: 17:15,1.000,
    Until: 18:00,0.048,
    Until: 18:05,1.000,
    Until: 24:00,0.000,
    Through: 1/22,
    For: AllDays,
    Until: 03:14,0.000,
    Until: 03:16,1.000,
    Until: 04:01,0.048,
    Until: 04:06,1.000,
    Until: 04:07,0.000,
    Until: 04:09,1.000,
    Until: 04:54,0.048,
    Until: 04:59,1.000,
    Until: 06:42,0.000,
    Until: 06:44,1.000,
    Until: 07:29,0.048,
    Until: 07:34,1.000,
    Until: 11:27,0.000,
    Until: 11:29,1.000,
    Until: 12:14,0.048,
    Until: 12:19,1.000,
    Until: 13:39,0.000,
    Until: 13:41,1.000,
    Until: 14:26,0.048,
    Until: 14:31,1.000,
    Until: 24:00,0.000,
    Through: 1/23,
    For: AllDays,
    Until: 01:05,0.000,
    Until: 01:07,1.000,
    Until: 01:52,0.048,
    Until: 01:57,1.000,
    Until: 02:51,0.000,
    Until: 02:53,1.000,
    Until: 03:38,0.048,
    Until: 03:43,1.000,
    Until: 04:18,0.000,
    Until: 04:20,1.000,
    Until: 05:05,0.048,
    Until: 05:10,1.000,
    Until: 05:54,0.000,
    Until: 05:56,1.000,
    Until: 06:41,0.048,
    Until: 06:46,1.000,
    Until: 08:16,0.000,
    Until: 08:18,1.000,
    Until: 09:03,0.048,
    Until: 09:08,1.000,
    Until: 13:07,0.000,
    Until: 13:09,1.000,
    Until: 13:54,0.048,
    Until: 13:59,1.000,
    Until: 24:00,0.000,
    Through: 1/24,
    For: AllDays,
    Until: 24:00,0.000,
    Through: 1/25,
    For: AllDays,
    Until: 24:00,0.000,
    Through: 1/26,
    For: AllDays,
    Until: 02:17,0.000,
    Until: 02:19,1.000,
    Until: 03:04,0.048,
    Until: 03:09,1.000,
    Until: 03:10,0.000,
    Until: 03:12,1.000,
    Until: 03:57,0.048,
    Until: 04:02,1.000,
    Until: 06:28,0.000,
    Until: 06:30,1.000,
    Until: 07:15,0.048,
    Until: 07:20,1.000,
    Until: 10:41,0.000,
    Until: 10:43,1.000,
    Until: 11:28,0.048,
    Until: 11:33,1.000,
    Until: 12:27,0.000,
    Until: 12:29,1.000,
    Until: 13:14,0.048,
    Until: 13:19,1.000,
    Until: 15:41,0.000,
    Until: 15:43,1.000,
    Until: 16:28,0.048,
    Until: 16:33,1.000,
    Until: 24:00,0.000,
    Through: 1/27,
    For: AllDays,
    Until: 01:08,0.000,
    Until: 01:10,1.000,
    Until: 01:55,0.048,
    Until: 02:00,1.000,
    Until: 02:01,0.000,
    Until: 02:03,1.000,
    Until: 02:48,0.048,
    Until: 02:53,1.000,
    Until: 04:02,0.000,
    Until: 04:04,1.000,
    Until: 04:49,0.048,
    Until: 04:54,1.000,
    Until: 05:15,0.000,
    Until: 05:17,1.000,
    Until: 06:02,0.048,
    Until: 06:07,1.000,
    Until: 06:13,0.000,
    Until: 06:15,1.000,
    Until: 07:00,0.048,
    Until: 07:05,1.000,
    Until: 10:21,0.000,
    Until: 10:23,1.000,
    Until: 11:08,0.048,
    Until: 11:13,1.000,
    Until: 12:26,0.000,
    Until: 12:28,1.000,
    Until: 13:13,0.048,
    Until: 13:18,1.000,
    Until: 24:00,0.000,
    Through: 1/28,
    For: AllDays,
    Until: 01:40,0.000,
    Until: 01:42,1.000,
    Until: 02:27,0.048,
    Until: 02:32,1.000,
    Until: 02:47,0.000,
    Until: 02:49,1.000,
    Until: 03:34,0.048,
    Until: 03:39,1.000,
    Until: 03:49,0.000,
    Until: 03:51,1.000,
    Until: 04:36,0.048,
    Until: 04:41,1.000,
    Until: 05:31,0.000,
    Until: 05:33,1.000,
    Until: 06:18,0.048,
    Until: 06:23,1.000,
    Until: 10:20,0.000,
    Until: 10:22,1.000,
    Until: 11:07,0.048,
    Until: 11:12,1.000,
    Until: 13:15,0.000,
    Until: 13:17,1.000,
    Until: 14:02,0.048,
    Until: 14:07,1.000,
    Until: 15:26,0.000,
    Until: 15:28,1.000,
    Until: 16:13,0.048,
    Until: 16:18,1.000,
    Until: 24:00,0.000,
    Through: 1/29,
    For: AllDays,
    Until: 03:27,0.000,
    Until: 03:29,1.000,
    Until: 04:14,0.048,
    Until: 04:19,1.000,
    Until: 04:24,0.000,
    Until: 04:26,1.000,
    Until: 05:11,0.048,
    Until: 05:16,1.000,
    Until: 11:23,0.000,
    Until: 11:25,1.000,
    Until: 12:10,0.048,
    Until: 12:15,1.000,
    Until: 12:36,0.000,
    Until: 12:38,1.000,
    Until: 13:23,0.048,
    Until: 13:28,1.000,
    Until: 24:00,0.000,
    Through: 1/30,
    For: AllDays,
    Until: 01:53,0.000,
    Until: 01:55,1.000,
    Until: 02:40,0.048,
    Until: 02:45,1.000,
    Until: 02:46,0.000,
    Until: 02:48,1.000,
    Until: 03:33,0.048,
    Until: 03:38,1.000,
    Until: 03:39,0.000,
    Until: 03:41,1.000,
    Until: 04:26,0.048,
    Until: 04:31,1.000,
    Until: 08:59,0.000,
    Until: 09:01,1.000,
    Until: 09:46,0.048,
    Until: 09:51,1.000,
    Until: 11:36,0.000,
    Until: 11:38,1.000,
    Until: 12:23,0.048,
    Until: 12:28,1.000,
    Until: 24:00,0.000,
    Through: 1/31,
    For: AllDays,
    Until: 24:00,0.000,
    Through: 2/1,
    For: AllDays,
    Until: 24:00,0.000,
    Through: 2/2,
    For: AllDays,
    Until: 01:51,0.000,
    Until: 01:53,1.000,
    Until: 02:38,0.048,
    Until: 02:43,1.000,
    Until: 03:10,0.000,
    Until: 03:12,1.000,
    Until: 03:57,0.048,
    Until: 04:02,1.000,
    Until: 05:49,0.000,
    Until: 05:51,1.000,
    Until: 06:36,0.048,
    Until: 06:41,1.000,
    Until: 07:43,0.000,
    Until: 07:45,1.000,
    Until: 08:30,0.048,
    Until: 08:35,1.000,
    Until: 10:50,0.000,
    Until: 10:52,1.000,
    Until: 11:37,0.048,
    Until: 11:42,1.000,
    Until: 13:42,0.000,
    Until: 13:44,1.000,
    Until: 14:29,0.048,
    Until: 14:34,1.000,
    Until: 24:00,0.000,
    Through: 2/3,
    For: AllDays,
    Until: 03:28,0.000,
    Until: 03:30,1.000,
    Until: 04:15,0.048,
    Until: 04:20,1.000,
    Until: 04:21,0.000,
    Until: 04:23,1.000,
    Until: 05:08,0.048,
    Until: 05:13,1.000,
    Until: 05:49,0.000,
    Until: 05:51,1.000,
    Until: 06:36,0.048,
    Until: 06:41,1.000,
    Until: 07:43,0.000,
    Until: 07:45,1.000,
    Until: 08:30,0.048,
    Until: 08:35,1.000,
    Until: 12:22,0.000,
    Until: 12:24,1.000,
    Until: 13:09,0.048,
    Until: 13:14,1.000,
    Until: 24:00,0.000,
    Through: 2/4,
    For: AllDays,
    Until: 01:08,0.000,
    Until: 01:10,1.000,
    Until: 01:55,0.048,
    Until: 02:00,1.000,
    Until: 02:52,0.000,
    Until: 02:54,1.000,
    Until: 03:39,0.048,
    Until: 03:44,1.000,
    Until: 04:05,0.000,
    Until: 04:07,1.000,
    Until: 04:52,0.048,
    Until: 04:57,1.000,
    Until: 07:51,0.000,
    Until: 07:53,1.000,
    Until: 08:38,0.048,
    Until: 08:43,1.000,
    Until: 13:31,0.000,
    Until: 13:33,1.000,
    Until: 14:18,0.048,
    Until: 14:23,1.000,
    Until: 16:12,0.000,
    Until: 16:14,1.000,
    Until: 16:59,0.048,
    Until: 17:04,1.000,
    Until: 24:00,0.000,
    Through: 2/5,
    For: AllDays,
    Until: 01:20,0.000,
    Until: 01:22,1.000,
    Until: 02:07,0.048,
    Until: 02:12,1.000,
    Until: 02:13,0.000,
    Until: 02:15,1.000,
    Until: 03:00,0.048,
    Until: 03:05,1.000,
    Until: 12:06,0.000,
    Until: 12:08,1.000,
    Until: 12:53,0.048,
    Until: 12:58,1.000,
    Until: 24:00,0.000,
    Through: 2/6,
    For: AllDays,
    Until: 01:10,0.000,
    Until: 01:12,1.000,
    Until: 01:57,0.048,
    Until: 02:02,1.000,
    Until: 03:09,0.000,
    Until: 03:11,1.000,
    Until: 03:56,0.048,
    Until: 04:01,1.000,
    Until: 05:08,0.000,
    Until: 05:10,1.000,
    Until: 05:55,0.048,
    Until: 06:00,1.000,
    Until: 11:29,0.000,
    Until: 11:31,1.000,
    Until: 12:16,0.048,
    Until: 12:21,1.000,
    Until: 12:22,0.000,
    Until: 12:24,1.000,
    Until: 13:09,0.048,
    Until: 13:14,1.000,
    Until: 24:00,0.000,
    Through: 2/7,
    For: AllDays,
    Until: 24:00,0.000,
    Through: 2/8,
    For: AllDays,
    Until: 24:00,0.000,
    Through: 2/9,
    For: AllDays,
    Until: 01:50,0.000,
    Until: 01:52,1.000,
    Until: 02:37,0.048,
    Until: 02:42,1.000,
    Until: 03:50,0.000,
    Until: 03:52,1.000,
    Until: 04:37,0.048,
    Until: 04:42,1.000,
    Until: 05:53,0.000,
    Until: 05:55,1.000,
    Until: 06:40,0.048,
    Until: 06:45,1.000,
    Until: 10:36,0.000,
    Until: 10:38,1.000,
    Until: 11:23,0.048,
    Until: 11:28,1.000,
    Until: 13:31,0.000,
    Until: 13:33,1.000,
    Until: 14:18,0.048,
    Until: 14:23,1.000,
    Until: 16:05,0.000,
    Until: 16:07,1.000,
    Until: 16:52,0.048,
    Until: 16:57,1.000,
    Until: 24:00,0.000,
    Through: 2/10,
    For: AllDays,
    Until: 00:13,0.000,
    Until: 00:15,1.000,
    Until: 01:00,0.048,
    Until: 01:05,1.000,
    Until: 01:16,0.000,
    Until: 01:18,1.000,
    Until: 02:03,0.048,
    Until: 02:08,1.000,
    Until: 03:27,0.000,
    Until: 03:29,1.000,
    Until: 04:14,0.048,
    Until: 04:19,1.000,
    Until: 05:32,0.000,
    Until: 05:34,1.000,
    Until: 06:19,0.048,
    Until: 06:24,1.000,
    Until: 10:23,0.000,
    Until: 10:25,1.000,
    Until: 11:10,0.048,
    Until: 11:15,1.000,
    Until: 13:08,0.000,
    Until: 13:10,1.000,
    Until: 13:55,0.048,
    Until: 14:00,1.000,
    Until: 24:00,0.000,
    Through: 2/11,
    For: AllDays,
    Until: 02:34,0.000,
    Until: 02:36,1.000,
    Until: 03:21,0.048,
    Until: 03:26,1.000,
    Until: 03:40,0.000,
    Until: 03:42,1.000,
    Until: 04:27,0.048,
    Until: 04:32,1.000,
    Until: 08:31,0.000,
    Until: 08:33,1.000,
    Until: 09:18,0.048,
    Until: 09:23,1.000,
    Until: 10:55,0.000,
    Until: 10:57,1.000,
    Until: 11:42,0.048,
    Until: 11:47,1.000,
    Until: 12:54,0.000,
    Until: 12:56,1.000,
    Until: 13:41,0.048,
    Until: 13:46,1.000,
    Until: 24:00,0.000,
    Through: 2/12,
    For: AllDays,
    Until: 02:54,0.000,
    Until: 02:56,1.000,
    Until: 03:41,0.048,
    Until: 03:46,1.000,
    Until: 05:48,0.000,
    Until: 05:50,1.000,
    Until: 06:35,0.048,
    Until: 06:40,1.000,
    Until: 12:35,0.000,
    Until: 12:37,1.000,
    Until: 13:22,0.048,
    Until: 13:27,1.000,
    Until: 24:00,0.000,
    Through: 2/13,
    For: AllDays,
    Until: 01:17,0.000,
    Until: 01:19,1.000,
    Until: 02:04,0.048,
    Until: 02:09,1.000,
    Until: 02:48,0.000,
    Until: 02:50,1.000,
    Until: 03:35,0.048,
    Until: 03:40,1.000,
    Until: 06:06,0.000,
    Until: 06:08,1.000,
    Until: 06:53,0.048,
    Until: 06:58,1.000,
    Until: 07:23,0.000,
    Until: 07:25,1.000,
    Until: 08:10,0.048,
    Until: 08:15,1.000,
    Until: 10:49,0.000,
    Until: 10:51,1.000,
    Until: 11:36,0.048,
    Until: 11:41,1.000,
    Until: 12:05,0.000,
    Until: 12:07,1.000,
    Until: 12:52,0.048,
    Until: 12:57,1.000,
    Until: 16:19,0.000,
    Until: 16:21,1.000,
    Until: 17:06,0.048,
    Until: 17:11,1.000,
    Until: 24:00,0.000,
    Through: 2/14,
    For: AllDays,
    Until: 24:00,0.000,
    Through: 2/15,
    For: AllDays,
    Until: 24:00,0.000,
    Through: 2/16,
    For: AllDays,
    Until: 02:17,0.000,
    Until: 02:19,1.000,
    Until: 03:04,0.048,
    Until: 03:09,1.000,
    Until: 03:10,0.000,
    Until: 03:12,1.000,
    Until: 03:57,0.048,
    Until: 04:02,1.000,
    Until: 06:46,0.000,
    Until: 06:48,1.000,
    Until: 07:33,0.048,
    Until: 07:38,1.000,
    Until: 11:54,0.000,
    Until: 11:56,1.000,
    Until: 12:41,0.048,
    Until: 12:46,1.000,
    Until: 24:00,0.000,
    Through: 2/17,
    For: AllDays,
    Until: 02:43,0.000,
    Until: 02:45,1.000,
    Until: 03:30,0.048,
    Until: 03:35,1.000,
    Until: 03:36,0.000,
    Until: 03:38,1.000,
    Until: 04:23,0.048,
    Until: 04:28,1.000,
    Until: 07:24,0.000,
    Until: 07:26,1.000,
    Until: 08:11,0.048,
    Until: 08:16,1.000,
    Until: 13:38,0.000,
    Until: 13:40,1.000,
    Until: 14:25,0.048,
    Until: 14:30,1.000,
    Until: 24:00,0.000,
    Through: 2/18,
    For: AllDays,
    Until: 01:08,0.000,
    Until: 01:10,1.000,
    Until: 01:55,0.048,
    Until: 02:00,1.000,
    Until: 02:32,0.000,
    Until: 02:34,1.000,
    Until: 03:19,0.048,
    Until: 03:24,1.000,
    Until: 03:32,0.000,
    Until: 03:34,1.000,
    Until: 04:19,0.048,
    Until: 04:24,1.000,
    Until: 05:34,0.000,
    Until: 05:36,1.000,
    Until: 06:21,0.048,
    Until: 06:26,1.000,
    Until: 06:38,0.000,
    Until: 06:40,1.000,
    Until: 07:25,0.048,
    Until: 07:30,1.000,
    Until: 09:58,0.000,
    Until: 10:00,1.000,
    Until: 10:45,0.048,
    Until: 10:50,1.000,
    Until: 11:00,0.000,
    Until: 11:02,1.000,
    Until: 11:47,0.048,
    Until: 11:52,1.000,
    Until: 12:56,0.000,
    Until: 12:58,1.000,
    Until: 13:43,0.048,
    Until: 13:48,1.000,
    Until: 24:00,0.000,
    Through: 2/19,
    For: AllDays,
    Until: 01:19,0.000,
    Until: 01:21,1.000,
    Until: 02:06,0.048,
    Until: 02:11,1.000,
    Until: 02:52,0.000,
    Until: 02:54,1.000,
    Until: 03:39,0.048,
    Until: 03:44,1.000,
    Until: 09:24,0.000,
    Until: 09:26,1.000,
    Until: 10:11,0.048,
    Until: 10:16,1.000,
    Until: 12:45,0.000,
    Until: 12:47,1.000,
    Until: 13:32,0.048,
    Until: 13:37,1.000,
    Until: 14:43,0.000,
    Until: 14:45,1.000,
    Until: 15:30,0.048,
    Until: 15:35,1.000,
    Until: 24:00,0.000,
    Through: 2/20,
    For: AllDays,
    Until: 01:22,0.000,
    Until: 01:24,1.000,
    Until: 02:09,0.048,
    Until: 02:14,1.000,
    Until: 02:38,0.000,
    Until: 02:40,1.000,
    Until: 03:25,0.048,
    Until: 03:30,1.000,
    Until: 09:19,0.000,
    Until: 09:21,1.000,
    Until: 10:06,0.048,
    Until: 10:11,1.000,
    Until: 12:00,0.000,
    Until: 12:02,1.000,
    Until: 12:47,0.048,
    Until: 12:52,1.000,
    Until: 24:00,0.000,
    Through: 2/21,
    For: AllDays,
    Until: 24:00,0.000,
    Through: 2/22,
    For: AllDays,
    Until: 24:00,0.000,
    Through: 2/23,
    For: AllDays,
    Until: 01:18,0.000,
    Until: 01:20,1.000,
    Until: 02:05,0.048,
    Until: 02:10,1.000,
    Until: 02:28,0.000,
    Until: 02:30,1.000,
    Until: 03:15,0.048,
    Until: 03:20,1.000,
    Until: 03:58,0.000,
    Until: 04:00,1.000,
    Until: 04:45,0.048,
    Until: 04:50,1.000,
    Until: 06:40,0.000,
    Until: 06:42,1.000,
    Until: 07:27,0.048,
    Until: 07:32,1.000,
    Until: 11:18,0.000,
    Until: 11:20,1.000,
    Until: 12:05,0.048,
    Until: 12:10,1.000,
    Until: 24:00,0.000,
    Through: 2/24,
    For: AllDays,
    Until: 02:41,0.000,
    Until: 02:43,1.000,
    Until: 03:28,0.048,
    Until: 03:33,1.000,
    Until: 03:34,0.000,
    Until: 03:36,1.000,
    Until: 04:21,0.048,
    Until: 04:26,1.000,
    Until: 24:00,0.000,
    Through: 2/25,
    For: AllDays,
    Until: 02:33,0.000,
    Until: 02:35,1.000,
    Until: 03:20,0.048,
    Until: 03:25,1.000,
    Until: 06:13,0.000,
    Until: 06:15,1.000,
    Until: 07:00,0.048,
    Until: 07:05,1.000,
    Until: 10:06,0.000,
    Until: 10:08,1.000,
    Until: 10:53,0.048,
    Until: 10:58,1.000,
    Until: 12:00,0.000,
    Until: 12:02,1.000,
    Until: 12:47,0.048,
    Until: 12:52,1.000,
    Until: 13:40,0.000,
    Until: 13:42,1.000,
    Until: 14:27,0.048,
    Until: 14:32,1.000,
    Until: 24:00,0.000,
    Through: 2/26,
    For: AllDays,
    Until: 00:15,0.000,
    Until: 00:17,1.000,
    Until: 01:02,0.048,
    Until: 01:07,1.000,
    Until: 01:49,0.000,
    Until: 01:51,1.000,
    Until: 02:36,0.048,
    Until: 02:41,1.000,
    Until: 02:59,0.000,
    Until: 03:01,1.000,
    Until: 03:46,0.048,
    Until: 03:51,1.000,
    Until: 08:45,0.000,
    Until: 08:47,1.000,
    Until: 09:32,0.048,
    Until: 09:37,1.000,
    Until: 13:52,0.000,
    Until: 13:54,1.000,
    Until: 14:39,0.048,
    Until: 14:44,1.000,
    Until: 24:00,0.000,
    Through: 2/27,
    For: AllDays,
    Until: 02:43,0.000,
    Until: 02:45,1.000,
    Until: 03:30,0.048,
    Until: 03:35,1.000,
    Until: 04:19,0.000,
    Until: 04:21,1.000,
    Until: 05:06,0.048,
    Until: 05:11,1.000,
    Until: 08:09,0.000,
    Until: 08:11,1.000,
    Until: 08:56,0.048,
    Until: 09:01,1.000,
    Until: 10:15,0.000,
    Until: 10:17,1.000,
    Until: 11:02,0.048,
    Until: 11:07,1.000,
    Until: 24:00,0.000,
    Through: 2/28,
    For: AllDays,
    Until: 24:00,0.000,
    Through: 3/1,
    For: AllDays,
    Until: 24:00,0.000,
    Through: 3/2,
    For: AllDays,
    Until: 03:30,0.000,
    Until: 03:32,1.000,
    Until: 04:17,0.048,
    Until: 04:22,1.000,
    Until: 08:51,0.000,
    Until: 08:53,1.000,
    Until: 09:38,0.048,
    Until: 09:43,1.000,
    Until: 10:13,0.000,
    Until: 10:15,1.000,
    Until: 11:00,0.048,
    Until: 11:05,1.000,
    Until: 11:45,0.000,
    Until: 11:47,1.000,
    Until: 12:32,0.048,
    Until: 12:37,1.000,
    Until: 15:30,0.000,
    Until: 15:32,1.000,
    Until: 16:17,0.048,
    Until: 16:22,1.000,
    Until: 24:00,0.000,
    Through: 3/3,
    For: AllDays,
    Until: 03:26,0.000,
    Until: 03:28,1.000,
    Until: 04:13,0.048,
    Until: 04:18,1.000,
    Until: 06:27,0.000,
    Until: 06:29,1.000,
    Until: 07:14,0.048,
    Until: 07:19,1.000,
    Until: 12:12,0.000,
    Until: 12:14,1.000,
    Until: 12:59,0.048,
    Until: 13:04,1.000,
    Until: 14:57,0.000,
    Until: 14:59,1.000,
    Until: 15:44,0.048,
    Until: 15:49,1.000,
    Until: 24:00,0.000,
    Through: 3/4,
    For: AllDays,
    Until: 02:15,0.000,
    Until: 02:17,1.000,
    Until: 03:02,0.048,
    Until: 03:07,1.000,
    Until: 03:55,0.000,
    Until: 03:57,1.000,
    Until: 04:42,0.048,
    Until: 04:47,1.000,
    Until: 08:32,0.000,
    Until: 08:34,1.000,
    Until: 09:19,0.048,
    Until: 09:24,1.000,
    Until: 11:50,0.000,
    Until: 11:52,1.000,
    Until: 12:37,0.048,
    Until: 12:42,1.000,
    Until: 15:52,0.000,
    Until: 15:54,1.000,
    Until: 16:39,0.048,
    Until: 16:44,1.000,
    Until: 24:00,0.000,
    Through: 3/5,
    For: AllDays,
    Until: 00:58,0.000,
    Until: 01:00,1.000,
    Until: 01:45,0.048,
    Until: 01:50,1.000,
    Until: 04:40,0.000,
    Until: 04:42,1.000,
    Until: 05:27,0.048,
    Until: 05:32,1.000,
    Until: 07:04,0.000,
    Until: 07:06,1.000,
    Until: 07:51,0.048,
    Until: 07:56,1.000,
    Until: 12:47,0.000,
    Until: 12:49,1.000,
    Until: 13:34,0.048,
    Until: 13:39,1.000,
    Until: 24:00,0.000,
    Through: 3/6,
    For: AllDays,
    Until: 01:14,0.000,
    Until: 01:16,1.000,
    Until: 02:01,0.048,
    Until: 02:06,1.000,
    Until: 02:07,0.000,
    Until: 02:09,1.000,
    Until: 02:54,0.048,
    Until: 02:59,1.000,
    Until: 04:00,0.000,
    Until: 04:02,1.000,
    Until: 04:47,0.048,
    Until: 04:52,1.000,
    Until: 05:13,0.000,
    Until: 05:15,1.000,
    Until: 06:00,0.048,
    Until: 06:05,1.000,
    Until: 11:54,0.000,
    Until: 11:56,1.000,
    Until: 12:41,0.048,
    Until: 12:46,1.000,
    Until: 24:00,0.000,
    Through: 3/7,
    For: AllDays,
    Until: 24:00,0.000,
    Through: 3/8,
    For: AllDays,
    Until: 24:00,0.000,
    Through: 3/9,
    For: AllDays,
    Until: 01:51,0.000,
    Until: 01:53,1.000,
    Until: 02:38,0.048,
    Until: 02:43,1.000,
    Until: 03:55,0.000,
    Until: 03:57,1.000,
    Until: 04:42,0.048,
    Until: 04:47,1.000,
    Until: 12:38,0.000,
    Until: 12:40,1.000,
    Until: 13:25,0.048,
    Until: 13:30,1.000,
    Until: 16:05,0.000,
    Until: 16:07,1.000,
    Until: 16:52,0.048,
    Until: 16:57,1.000,
    Until: 24:00,0.000,
    Through: 3/10,
    For: AllDays,
    Until: 01:20,0.000,
    Until: 01:22,1.000,
    Until: 02:07,0.048,
    Until: 02:12,1.000,
    Until: 02:45,0.000,
    Until: 02:47,1.000,
    Until: 03:32,0.048,
    Until: 03:37,1.000,
    Until: 03:49,0.000,
    Until: 03:51,1.000,
    Until: 04:36,0.048,
    Until: 04:41,1.000,
    Until: 07:17,0.000,
    Until: 07:19,1.000,
    Until: 08:04,0.048,
    Until: 08:09,1.000,
    Until: 13:32,0.000,
    Until: 13:34,1.000,
    Until: 14:19,0.048,
    Until: 14:24,1.000,
    Until: 24:00,0.000,
    Through: 3/11,
    For: AllDays,
    Until: 01:03,0.000,
    Until: 01:05,1.000,
    Until: 01:50,0.048,
    Until: 01:55,1.000,
    Until: 02:36,0.000,
    Until: 02:38,1.000,
    Until: 03:23,0.048,
    Until: 03:28,1.000,
    Until: 07:09,0.000,
    Until: 07:11,1.000,
    Until: 07:56,0.048,
    Until: 08:01,1.000,
    Until: 10:40,0.000,
    Until: 10:42,1.000,
    Until: 11:27,0.048,
    Until: 11:32,1.000,
    Until: 13:51,0.000,
    Until: 13:53,1.000,
    Until: 14:38,0.048,
    Until: 14:43,1.000,
    Until: 15:14,0.000,
    Until: 15:16,1.000,
    Until: 16:01,0.048,
    Until: 16:06,1.000,
    Until: 24:00,0.000,
    Through: 3/12,
    For: AllDays,
    Until: 01:57,0.000,
    Until: 01:59,1.000,
    Until: 02:44,0.048,
    Until: 02:49,1.000,
    Until: 02:50,0.000,
    Until: 02:52,1.000,
    Until: 03:37,0.048,
    Until: 03:42,1.000,
    Until: 05:36,0.000,
    Until: 05:38,1.000,
    Until: 06:23,0.048,
    Until: 06:28,1.000,
    Until: 11:09,0.000,
    Until: 11:11,1.000,
    Until: 11:56,0.048,
    Until: 12:01,1.000,
    Until: 12:02,0.000,
    Until: 12:04,1.000,
    Until: 12:49,0.048,
    Until: 12:54,1.000,
    Until: 14:30,0.000,
    Until: 14:32,1.000,
    Until: 15:17,0.048,
    Until: 15:22,1.000,
    Until: 24:00,0.000,
    Through: 3/13,
    For: AllDays,
    Until: 00:05,0.000,
    Until: 00:07,1.000,
    Until: 00:52,0.048,
    Until: 00:57,1.000,
    Until: 02:01,0.000,
    Until: 02:03,1.000,
    Until: 02:48,0.048,
    Until: 02:53,1.000,
    Until: 03:46,0.000,
    Until: 03:48,1.000,
    Until: 04:33,0.048,
    Until: 04:38,1.000,
    Until: 11:21,0.000,
    Until: 11:23,1.000,
    Until: 12:08,0.048,
    Until: 12:13,1.000,
    Until: 13:17,0.000,
    Until: 13:19,1.000,
    Until: 14:04,0.048,
    Until: 14:09,1.000,
    Until: 24:00,0.000,
    Through: 3/14,
    For: AllDays,
    Until: 24:00,0.000,
    Through: 3/15,
    For: AllDays,
    Until: 24:00,0.000,
    Through: 3/16,
    For: AllDays,
    Until: 01:38,0.000,
    Until: 01:40,1.000,
    Until: 02:25,0.048,
    Until: 02:30,1.000,
    Until: 04:05,0.000,
    Until: 04:07,1.000,
    Until: 04:52,0.048,
    Until: 04:57,1.000,
    Until: 08:02,0.000,
    Until: 08:04,1.000,
    Until: 08:49,0.048,
    Until: 08:54,1.000,
    Until: 10:18,0.000,
    Until: 10:20,1.000,
    Until: 11:05,0.048,
    Until: 11:10,1.000,
    Until: 14:41,0.000,
    Until: 14:43,1.000,
    Until: 15:28,0.048,
    Until: 15:33,1.000,
    Until: 15:52,0.000,
    Until: 15:54,1.000,
    Until: 16:39,0.048,
    Until: 16:44,1.000,
    Until: 24:00,0.000,
    Through: 3/17,
    For: AllDays,
    Until: 00:34,0.000,
    Until: 00:36,1.000,
    Until: 01:21,0.048,
    Until: 01:26,1.000,
    Until: 02:46,0.000,
    Until: 02:48,1.000,
    Until: 03:33,0.048,
    Until: 03:38,1.000,
    Until: 08:31,0.000,
    Until: 08:33,1.000,
    Until: 09:18,0.048,
    Until: 09:23,1.000,
    Until: 13:02,0.000,
    Until: 13:04,1.000,
    Until: 13:49,0.048,
    Until: 13:54,1.000,
    Until: 24:00,0.000,
    Through: 3/18,
    For: AllDays,
    Until: 01:44,0.000,
    Until: 01:46,1.000,
    Until: 02:31,0.048,
    Until: 02:36,1.000,
    Until: 02:53,0.000,
    Until: 02:55,1.000,
    Until: 03:40,0.048,
    Until: 03:45,1.000,
    Until: 04:27,0.000,
    Until: 04:29,1.000,
    Until: 05:14,0.048,
    Until: 05:19,1.000,
    Until: 08:23,0.000,
    Until: 08:25,1.000,
    Until: 09:10,0.048,
    Until: 09:15,1.000,
    Until: 12:28,0.000,
    Until: 12:30,1.000,
    Until: 13:15,0.048,
    Until: 13:20,1.000,
    Until: 16:22,0.000,
    Until: 16:24,1.000,
    Until: 17:09,0.048,
    Until: 17:14,1.000,
    Until: 24:00,0.000,
    Through: 3/19,
    For: AllDays,
    Until: 00:26,0.000,
    Until: 00:28,1.000,
    Until: 01:13,0.048,
    Until: 01:18,1.000,
    Until: 01:22,0.000,
    Until: 01:24,1.000,
    Until: 02:09,0.048,
    Until: 02:14,1.000,
    Until: 10:47,0.000,
    Until: 10:49,1.000,
    Until: 11:34,0.048,
    Until: 11:39,1.000,
    Until: 13:29,0.000,
    Until: 13:31,1.000,
    Until: 14:16,0.048,
    Until: 14:21,1.000,
    Until: 15:40,0.000,
    Until: 15:42,1.000,
    Until: 16:27,0.048,
    Until: 16:32,1.000,
    Until: 24:00,0.000,
    Through: 3/20,
    For: AllDays,
    Until: 00:24,0.000,
    Until: 00:26,1.000,
    Until: 01:11,0.048,
    Until: 01:16,1.000,
    Until: 03:10,0.000,
    Until: 03:12,1.000,
    Until: 03:57,0.048,
    Until: 04:02,1.000,
    Until: 04:32,0.000,
    Until: 04:34,1.000,
    Until: 05:19,0.048,
    Until: 05:24,1.000,
    Until: 10:47,0.000,
    Until: 10:49,1.000,
    Until: 11:34,0.048,
    Until: 11:39,1.000,
    Until: 24:00,0.000,
    Through: 3/21,
    For: AllDays,
    Until: 24:00,0.000,
    Through: 3/22,
    For: AllDays,
    Until: 24:00,0.000,
    Through: 3/23,
    For: AllDays,
    Until: 00:44,0.000,
    Until: 00:46,1.000,
    Until: 01:31,0.048,
    Until: 01:36,1.000,
    Until: 01:48,0.000,
    Until: 01:50,1.000,
    Until: 02:35,0.048,
    Until: 02:40,1.000,
    Until: 02:51,0.000,
    Until: 02:53,1.000,
    Until: 03:38,0.048,
    Until: 03:43,1.000,
    Until: 07:39,0.000,
    Until: 07:41,1.000,
    Until: 08:26,0.048,
    Until: 08:31,1.000,
    Until: 11:15,0.000,
    Until: 11:17,1.000,
    Until: 12:02,0.048,
    Until: 12:07,1.000,
    Until: 13:25,0.000,
    Until: 13:27,1.000,
    Until: 14:12,0.048,
    Until: 14:17,1.000,
    Until: 24:00,0.000,
    Through: 3/24,
    For: AllDays,
    Until: 03:16,0.000,
    Until: 03:18,1.000,
    Until: 04:03,0.048,
    Until: 04:08,1.000,
    Until: 09:56,0.000,
    Until: 09:58,1.000,
    Until: 10:43,0.048,
    Until: 10:48,1.000,
    Until: 15:25,0.000,
    Until: 15:27,1.000,
    Until: 16:12,0.048,
    Until: 16:17,1.000,
    Until: 24:00,0.000,
    Through: 3/25,
    For: AllDays,
    Until: 01:26,0.000,
    Until: 01:28,1.000,
    Until: 02:13,0.048,
    Until: 02:18,1.000,
    Until: 03:08,0.000,
    Until: 03:10,1.000,
    Until: 03:55,0.048,
    Until: 04:00,1.000,
    Until: 04:16,0.000,
    Until: 04:18,1.000,
    Until: 05:03,0.048,
    Until: 05:08,1.000,
    Until: 06:19,0.000,
    Until: 06:21,1.000,
    Until: 07:06,0.048,
    Until: 07:11,1.000,
    Until: 12:04,0.000,
    Until: 12:06,1.000,
    Until: 12:51,0.048,
    Until: 12:56,1.000,
    Until: 24:00,0.000,
    Through: 3/26,
    For: AllDays,
    Until: 02:47,0.000,
    Until: 02:49,1.000,
    Until: 03:34,0.048,
    Until: 03:39,1.000,
    Until: 03:40,0.000,
    Until: 03:42,1.000,
    Until: 04:27,0.048,
    Until: 04:32,1.000,
    Until: 05:52,0.000,
    Until: 05:54,1.000,
    Until: 06:39,0.048,
    Until: 06:44,1.000,
    Until: 13:07,0.000,
    Until: 13:09,1.000,
    Until: 13:54,0.048,
    Until: 13:59,1.000,
    Until: 24:00,0.000,
    Through: 3/27,
    For: AllDays,
    Until: 00:29,0.000,
    Until: 00:31,1.000,
    Until: 01:16,0.048,
    Until: 01:21,1.000,
    Until: 02:13,0.000,
    Until: 02:15,1.000,
    Until: 03:00,0.048,
    Until: 03:05,1.000,
    Until: 04:24,0.000,
    Until: 04:26,1.000,
    Until: 05:11,0.048,
    Until: 05:16,1.000,
    Until: 06:46,0.000,
    Until: 06:48,1.000,
    Until: 07:33,0.048,
    Until: 07:38,1.000,
    Until: 12:25,0.000,
    Until: 12:27,1.000,
    Until: 13:12,0.048,
    Until: 13:17,1.000,
    Until: 24:00,0.000,
    Through: 3/28,
    For: AllDays,
    Until: 24:00,0.000,
    Through: 3/29,
    For: AllDays,
    Until: 24:00,0.000,
    Through: 3/30,
    For: AllDays,
    Until: 01:13,0.000,
    Until: 01:15,1.000,
    Until: 02:00,0.048,
    Until: 02:05,1.000,
    Until: 02:10,0.000,
    Until: 02:12,1.000,
    Until: 02:57,0.048,
    Until: 03:02,1.000,
    Until: 10:38,0.000,
    Until: 10:40,1.000,
    Until: 11:25,0.048,
    Until: 11:30,1.000,
    Until: 18:15,0.000,
    Until: 18:17,1.000,
    Until: 19:02,0.048,
    Until: 19:07,1.000,
    Until: 24:00,0.000,
    Through: 3/31,
    For: AllDays,
    Until: 00:41,0.000,
    Until: 00:43,1.000,
    Until: 01:28,0.048,
    Until: 01:33,1.000,
    Until: 01:45,0.000,
    Until: 01:47,1.000,
    Until: 02:32,0.048,
    Until: 02:37,1.000,
    Until: 11:20,0.000,
    Until: 11:22,1.000,
    Until: 12:07,0.048,
    Until: 12:12,1.000,
    Until: 12:38,0.000,
    Until: 12:40,1.000,
    Until: 13:25,0.048,
    Until: 13:30,1.000,
    Until: 16:17,0.000,
    Until: 16:19,1.000,
    Until: 17:04,0.048,
    Until: 17:09,1.000,
    Until: 24:00,0.000,
    Through: 4/1,
    For: AllDays,
    Until: 03:56,0.000,
    Until: 03:58,1.000,
    Until: 04:43,0.048,
    Until: 04:48,1.000,
    Until: 04:49,0.000,
    Until: 04:51,1.000,
    Until: 05:36,0.048,
    Until: 05:41,1.000,
    Until: 06:03,0.000,
    Until: 06:05,1.000,
    Until: 06:50,0.048,
    Until: 06:55,1.000,
    Until: 10:38,0.000,
    Until: 10:40,1.000,
    Until: 11:25,0.048,
    Until: 11:30,1.000,
    Until: 12:19,0.000,
    Until: 12:21,1.000,
    Until: 13:06,0.048,
    Until: 13:11,1.000,
    Until: 24:00,0.000,
    Through: 4/2,
    For: AllDays,
    Until: 01:22,0.000,
    Until: 01:24,1.000,
    Until: 02:09,0.048,
    Until: 02:14,1.000,
    Until: 02:41,0.000,
    Until: 02:43,1.000,
    Until: 03:28,0.048,
    Until: 03:33,1.000,
    Until: 08:06,0.000,
    Until: 08:08,1.000,
    Until: 08:53,0.048,
    Until: 08:58,1.000,
    Until: 11:51,0.000,
    Until: 11:53,1.000,
    Until: 12:38,0.048,
    Until: 12:43,1.000,
    Until: 15:57,0.000,
    Until: 15:59,1.000,
    Until: 16:44,0.048,
    Until: 16:49,1.000,
    Until: 24:00,0.000,
    Through: 4/3,
    For: AllDays,
    Until: 01:09,0.000,
    Until: 01:11,1.000,
    Until: 01:56,0.048,
    Until: 02:01,1.000,
    Until: 03:42,0.000,
    Until: 03:44,1.000,
    Until: 04:29,0.048,
    Until: 04:34,1.000,
    Until: 06:14,0.000,
    Until: 06:16,1.000,
    Until: 07:01,0.048,
    Until: 07:06,1.000,
    Until: 12:00,0.000,
    Until: 12:02,1.000,
    Until: 12:47,0.048,
    Until: 12:52,1.000,
    Until: 24:00,0.000,
    Through: 4/4,
    For: AllDays,
    Until: 24:00,0.000,
    Through: 4/5,
    For: AllDays,
    Until: 24:00,0.000,
    Through: 4/6,
    For: AllDays,
    Until: 01:43,0.000,
    Until: 01:45,1.000,
    Until: 02:30,0.048,
    Until: 02:35,1.000,
    Until: 02:39,0.000,
    Until: 02:41,1.000,
    Until: 03:26,0.048,
    Until: 03:31,1.000,
    Until: 08:15,0.000,
    Until: 08:17,1.000,
    Until: 09:02,0.048,
    Until: 09:07,1.000,
    Until: 12:15,0.000,
    Until: 12:17,1.000,
    Until: 13:02,0.048,
    Until: 13:07,1.000,
    Until: 15:35,0.000,
    Until: 15:37,1.000,
    Until: 16:22,0.048,
    Until: 16:27,1.000,
    Until: 24:00,0.000,
    Through: 4/7,
    For: AllDays,
    Until: 01:33,0.000,
    Until: 01:35,1.000,
    Until: 02:20,0.048,
    Until: 02:25,1.000,
    Until: 02:30,0.000,
    Until: 02:32,1.000,
    Until: 03:17,0.048,
    Until: 03:22,1.000,
    Until: 04:13,0.000,
    Until: 04:15,1.000,
    Until: 05:00,0.048,
    Until: 05:05,1.000,
    Until: 05:57,0.000,
    Until: 05:59,1.000,
    Until: 06:44,0.048,
    Until: 06:49,1.000,
    Until: 08:49,0.000,
    Until: 08:51,1.000,
    Until: 09:36,0.048,
    Until: 09:41,1.000,
    Until: 11:50,0.000,
    Until: 11:52,1.000,
    Until: 12:37,0.048,
    Until: 12:42,1.000,
    Until: 12:43,0.000,
    Until: 12:45,1.000,
    Until: 13:30,0.048,
    Until: 13:35,1.000,
    Until: 24:00,0.000,
    Through: 4/8,
    For: AllDays,
    Until: 02:03,0.000,
    Until: 02:05,1.000,
    Until: 02:50,0.048,
    Until: 02:55,1.000,
    Until: 03:19,0.000,
    Until: 03:21,1.000,
    Until: 04:06,0.048,
    Until: 04:11,1.000,
    Until: 08:18,0.000,
    Until: 08:20,1.000,
    Until: 09:05,0.048,
    Until: 09:10,1.000,
    Until: 11:58,0.000,
    Until: 12:00,1.000,
    Until: 12:45,0.048,
    Until: 12:50,1.000,
    Until: 13:39,0.000,
    Until: 13:41,1.000,
    Until: 14:26,0.048,
    Until: 14:31,1.000,
    Until: 17:24,0.000,
    Until: 17:26,1.000,
    Until: 18:11,0.048,
    Until: 18:16,1.000,
    Until: 24:00,0.000,
    Through: 4/9,
    For: AllDays,
    Until: 01:12,0.000,
    Until: 01:14,1.000,
    Until: 01:59,0.048,
    Until: 02:04,1.000,
    Until: 02:26,0.000,
    Until: 02:28,1.000,
    Until: 03:13,0.048,
    Until: 03:18,1.000,
    Until: 08:50,0.000,
    Until: 08:52,1.000,
    Until: 09:37,0.048,
    Until: 09:42,1.000,
    Until: 12:04,0.000,
    Until: 12:06,1.000,
    Until: 12:51,0.048,
    Until: 12:56,1.000,
    Until: 12:57,0.000,
    Until: 12:59,1.000,
    Until: 13:44,0.048,
    Until: 13:49,1.000,
    Until: 24:00,0.000,
    Through: 4/10,
    For: AllDays,
    Until: 01:25,0.000,
    Until: 01:27,1.000,
    Until: 02:12,0.048,
    Until: 02:17,1.000,
    Until: 03:07,0.000,
    Until: 03:09,1.000,
    Until: 03:54,0.048,
    Until: 03:59,1.000,
    Until: 04:00,0.000,
    Until: 04:02,1.000,
    Until: 04:47,0.048,
    Until: 04:52,1.000,
    Until: 11:30,0.000,
    Until: 11:32,1.000,
    Until: 12:17,0.048,
    Until: 12:22,1.000,
    Until: 24:00,0.000,
    Through: 4/11,
    For: AllDays,
    Until: 24:00,0.000,
    Through: 4/12,
    For: AllDays,
    Until: 24:00,0.000,
    Through: 4/13,
    For: AllDays,
    Until: 02:18,0.000,
    Until: 02:20,1.000,
    Until: 03:05,0.048,
    Until: 03:10,1.000,
    Until: 03:15,0.000,
    Until: 03:17,1.000,
    Until: 04:02,0.048,
    Until: 04:07,1.000,
    Until: 05:59,0.000,
    Until: 06:01,1.000,
    Until: 06:46,0.048,
    Until: 06:51,1.000,
    Until: 07:10,0.000,
    Until: 07:12,1.000,
    Until: 07:57,0.048,
    Until: 08:02,1.000,
    Until: 12:41,0.000,
    Until: 12:43,1.000,
    Until: 13:28,0.048,
    Until: 13:33,1.000,
    Until: 15:55,0.000,
    Until: 15:57,1.000,
    Until: 16:42,0.048,
    Until: 16:47,1.000,
    Until: 24:00,0.000,
    Through: 4/14,
    For: AllDays,
    Until: 01:42,0.000,
    Until: 01:44,1.000,
    Until: 02:29,0.048,
    Until: 02:34,1.000,
    Until: 03:05,0.000,
    Until: 03:07,1.000,
    Until: 03:52,0.048,
    Until: 03:57,1.000,
    Until: 06:38,0.000,
    Until: 06:40,1.000,
    Until: 07:25,0.048,
    Until: 07:30,1.000,
    Until: 11:08,0.000,
    Until: 11:10,1.000,
    Until: 11:55,0.048,
    Until: 12:00,1.000,
    Until: 12:48,0.000,
    Until: 12:50,1.000,
    Until: 13:35,0.048,
    Until: 13:40,1.000,
    Until: 16:08,0.000,
    Until: 16:10,1.000,
    Until: 16:55,0.048,
    Until: 17:00,1.000,
    Until: 24:00,0.000,
    Through: 4/15,
    For: AllDays,
    Until: 01:58,0.000,
    Until: 02:00,1.000,
    Until: 02:45,0.048,
    Until: 02:50,1.000,
    Until: 02:57,0.000,
    Until: 02:59,1.000,
    Until: 03:44,0.048,
    Until: 03:49,1.000,
    Until: 07:42,0.000,
    Until: 07:44,1.000,
    Until: 08:29,0.048,
    Until: 08:34,1.000,
    Until: 12:07,0.000,
    Until: 12:09,1.000,
    Until: 12:54,0.048,
    Until: 12:59,1.000,
    Until: 24:00,0.000,
    Through: 4/16,
    For: AllDays,
    Until: 01:42,0.000,
    Until: 01:44,1.000,
    Until: 02:29,0.048,
    Until: 02:34,1.000,
    Until: 03:41,0.000,
    Until: 03:43,1.000,
    Until: 04:28,0.048,
    Until: 04:33,1.000,
    Until: 04:34,0.000,
    Until: 04:36,1.000,
    Until: 05:21,0.048,
    Until: 05:26,1.000,
    Until: 07:18,0.000,
    Until: 07:20,1.000,
    Until: 08:05,0.048,
    Until: 08:10,1.000,
    Until: 11:17,0.000,
    Until: 11:19,1.000,
    Until: 12:04,0.048,
    Until: 12:09,1.000,
    Until: 12:26,0.000,
    Until: 12:28,1.000,
    Until: 13:13,0.048,
    Until: 13:18,1.000,
    Until: 24:00,0.000,
    Through: 4/17,
    For: AllDays,
    Until: 00:15,0.000,
    Until: 00:17,1.000,
    Until: 01:02,0.048,
    Until: 01:07,1.000,
    Until: 02:01,0.000,
    Until: 02:03,1.000,
    Until: 02:48,0.048,
    Until: 02:53,1.000,
    Until: 03:31,0.000,
    Until: 03:33,1.000,
    Until: 04:18,0.048,
    Until: 04:23,1.000,
    Until: 04:24,0.000,
    Until: 04:26,1.000,
    Until: 05:11,0.048,
    Until: 05:16,1.000,
    Until: 05:56,0.000,
    Until: 05:58,1.000,
    Until: 06:43,0.048,
    Until: 06:48,1.000,
    Until: 08:14,0.000,
    Until: 08:16,1.000,
    Until: 09:01,0.048,
    Until: 09:06,1.000,
    Until: 11:48,0.000,
    Until: 11:50,1.000,
    Until: 12:35,0.048,
    Until: 12:40,1.000,
    Until: 14:16,0.000,
    Until: 14:18,1.000,
    Until: 15:03,0.048,
    Until: 15:08,1.000,
    Until: 24:00,0.000,
    Through: 4/18,
    For: AllDays,
    Until: 24:00,0.000,
    Through: 4/19,
    For: AllDays,
    Until: 24:00,0.000,
    Through: 4/20,
    For: AllDays,
    Until: 01:48,0.000,
    Until: 01:50,1.000,
    Until: 02:35,0.048,
    Until: 02:40,1.000,
    Until: 03:30,0.000,
    Until: 03:32,1.000,
    Until: 04:17,0.048,
    Until: 04:22,1.000,
    Until: 04:25,0.000,
    Until: 04:27,1.000,
    Until: 05:12,0.048,
    Until: 05:17,1.000,
    Until: 07:52,0.000,
    Until: 07:54,1.000,
    Until: 08:39,0.048,
    Until: 08:44,1.000,
    Until: 11:01,0.000,
    Until: 11:03,1.000,
    Until: 11:48,0.048,
    Until: 11:53,1.000,
    Until: 12:19,0.000,
    Until: 12:21,1.000,
    Until: 13:06,0.048,
    Until: 13:11,1.000,
    Until: 24:00,0.000,
    Through: 4/21,
    For: AllDays,
    Until: 03:17,0.000,
    Until: 03:19,1.000,
    Until: 04:04,0.048,
    Until: 04:09,1.000,
    Until: 04:42,0.000,
    Until: 04:44,1.000,
    Until: 05:29,0.048,
    Until: 05:34,1.000,
    Until: 07:14,0.000,
    Until: 07:16,1.000,
    Until: 08:01,0.048,
    Until: 08:06,1.000,
    Until: 13:12,0.000,
    Until: 13:14,1.000,
    Until: 13:59,0.048,
    Until: 14:04,1.000,
    Until: 24:00,0.000,
    Through: 4/22,
    For: AllDays,
    Until: 01:01,0.000,
    Until: 01:03,1.000,
    Until: 01:48,0.048,
    Until: 01:53,1.000,
    Until: 02:32,0.000,
    Until: 02:34,1.000,
    Until: 03:19,0.048,
    Until: 03:24,1.000,
    Until: 03:32,0.000,
    Until: 03:34,1.000,
    Until: 04:19,0.048,
    Until: 04:24,1.000,
    Until: 05:39,0.000,
    Until: 05:41,1.000,
    Until: 06:26,0.048,
    Until: 06:31,1.000,
    Until: 07:28,0.000,
    Until: 07:30,1.000,
    Until: 08:15,0.048,
    Until: 08:20,1.000,
    Until: 09:38,0.000,
    Until: 09:40,1.000,
    Until: 10:25,0.048,
    Until: 10:30,1.000,
    Until: 15:00,0.000,
    Until: 15:02,1.000,
    Until: 15:47,0.048,
    Until: 15:52,1.000,
    Until: 24:00,0.000,
    Through: 4/23,
    For: AllDays,
    Until: 01:23,0.000,
    Until: 01:25,1.000,
    Until: 02:10,0.048,
    Until: 02:15,1.000,
    Until: 02:41,0.000,
    Until: 02:43,1.000,
    Until: 03:28,0.048,
    Until: 03:33,1.000,
    Until: 03:37,0.000,
    Until: 03:39,1.000,
    Until: 04:24,0.048,
    Until: 04:29,1.000,
    Until: 05:48,0.000,
    Until: 05:50,1.000,
    Until: 06:35,0.048,
    Until: 06:40,1.000,
    Until: 11:21,0.000,
    Until: 11:23,1.000,
    Until: 12:08,0.048,
    Until: 12:13,1.000,
    Until: 12:58,0.000,
    Until: 13:00,1.000,
    Until: 13:45,0.048,
    Until: 13:50,1.000,
    Until: 24:00,0.000,
    Through: 4/24,
    For: AllDays,
    Until: 00:58,0.000,
    Until: 01:00,1.000,
    Until: 01:45,0.048,
    Until: 01:50,1.000,
    Until: 01:51,0.000,
    Until: 01:53,1.000,
    Until: 02:38,0.048,
    Until: 02:43,1.000,
    Until: 03:22,0.000,
    Until: 03:24,1.000,
    Until: 04:09,0.048,
    Until: 04:14,1.000,
    Until: 09:19,0.000,
    Until: 09:21,1.000,
    Until: 10:06,0.048,
    Until: 10:11,1.000,
    Until: 12:00,0.000,
    Until: 12:02,1.000,
    Until: 12:47,0.048,
    Until: 12:52,1.000,
    Until: 24:00,0.000,
    Through: 4/25,
    For: AllDays,
    Until: 24:00,0.000,
    Through: 4/26,
    For: AllDays,
    Until: 24:00,0.000,
    Through: 4/27,
    For: AllDays,
    Until: 01:29,0.000,
    Until: 01:31,1.000,
    Until: 02:16,0.048,
    Until: 02:21,1.000,
    Until: 02:43,0.000,
    Until: 02:45,1.000,
    Until: 03:30,0.048,
    Until: 03:35,1.000,
    Until: 03:36,0.000,
    Until: 03:38,1.000,
    Until: 04:23,0.048,
    Until: 04:28,1.000,
    Until: 08:26,0.000,
    Until: 08:28,1.000,
    Until: 09:13,0.048,
    Until: 09:18,1.000,
    Until: 10:19,0.000,
    Until: 10:21,1.000,
    Until: 11:06,0.048,
    Until: 11:11,1.000,
    Until: 12:07,0.000,
    Until: 12:09,1.000,
    Until: 12:54,0.048,
    Until: 12:59,1.000,
    Until: 24:00,0.000,
    Through: 4/28,
    For: AllDays,
    Until: 02:11,0.000,
    Until: 02:13,1.000,
    Until: 02:58,0.048,
    Until: 03:03,1.000,
    Until: 03:04,0.000,
    Until: 03:06,1.000,
    Until: 03:51,0.048,
    Until: 03:56,1.000,
    Until: 05:38,0.000,
    Until: 05:40,1.000,
    Until: 06:25,0.048,
    Until: 06:30,1.000,
    Until: 07:55,0.000,
    Until: 07:57,1.000,
    Until: 08:42,0.048,
    Until: 08:47,1.000,
    Until: 11:00,0.000,
    Until: 11:02,1.000,
    Until: 11:47,0.048,
    Until: 11:52,1.000,
    Until: 13:29,0.000,
    Until: 13:31,1.000,
    Until: 14:16,0.048,
    Until: 14:21,1.000,
    Until: 24:00,0.000,
    Through: 4/29,
    For: AllDays,
    Until: 01:35,0.000,
    Until: 01:37,1.000,
    Until: 02:22,0.048,
    Until: 02:27,1.000,
    Until: 02:49,0.000,
    Until: 02:51,1.000,
    Until: 03:36,0.048,
    Until: 03:41,1.000,
    Until: 04:06,0.000,
    Until: 04:08,1.000,
    Until: 04:53,0.048,
    Until: 04:58,1.000,
    Until: 05:51,0.000,
    Until: 05:53,1.000,
    Until: 06:38,0.048,
    Until: 06:43,1.000,
    Until: 07:07,0.000,
    Until: 07:09,1.000,
    Until: 07:54,0.048,
    Until: 07:59,1.000,
    Until: 10:50,0.000,
    Until: 10:52,1.000,
    Until: 11:37,0.048,
    Until: 11:42,1.000,
    Until: 13:21,0.000,
    Until: 13:23,1.000,
    Until: 14:08,0.048,
    Until: 14:13,1.000,
    Until: 16:31,0.000,
    Until: 16:33,1.000,
    Until: 17:18,0.048,
    Until: 17:23,1.000,
    Until: 24:00,0.000,
    Through: 4/30,
    For: AllDays,
    Until: 01:32,0.000,
    Until: 01:34,1.000,
    Until: 02:19,0.048,
    Until: 02:24,1.000,
    Until: 04:04,0.000,
    Until: 04:06,1.000,
    Until: 04:51,0.048,
    Until: 04:56,1.000,
    Until: 05:53,0.000,
    Until: 05:55,1.000,
    Until: 06:40,0.048,
    Until: 06:45,1.000,
    Until: 10:46,0.000,
    Until: 10:48,1.000,
    Until: 11:33,0.048,
    Until: 11:38,1.000,
    Until: 13:20,0.000,
    Until: 13:22,1.000,
    Until: 14:07,0.048,
    Until: 14:12,1.000,
    Until: 24:00,0.000,
    Through: 5/1,
    For: AllDays,
    Until: 00:41,0.000,
    Until: 00:43,1.000,
    Until: 01:28,0.048,
    Until: 01:33,1.000,
    Until: 01:59,0.000,
    Until: 02:01,1.000,
    Until: 02:46,0.048,
    Until: 02:51,1.000,
    Until: 04:11,0.000,
    Until: 04:13,1.000,
    Until: 04:58,0.048,
    Until: 05:03,1.000,
    Until: 07:21,0.000,
    Until: 07:23,1.000,
    Until: 08:08,0.048,
    Until: 08:13,1.000,
    Until: 12:25,0.000,
    Until: 12:27,1.000,
    Until: 13:12,0.048,
    Until: 13:17,1.000,
    Until: 15:53,0.000,
    Until: 15:55,1.000,
    Until: 16:40,0.048,
    Until: 16:45,1.000,
    Until: 24:00,0.000,
    Through: 5/2,
    For: AllDays,
    Until: 24:00,0.000,
    Through: 5/3,
    For: AllDays,
    Until: 24:00,0.000,
    Through: 5/4,
    For: AllDays,
    Until: 01:04,0.000,
    Until: 01:06,1.000,
    Until: 01:51,0.048,
    Until: 01:56,1.000,
    Until: 02:20,0.000,
    Until: 02:22,1.000,
    Until: 03:07,0.048,
    Until: 03:12,1.000,
    Until: 03:47,0.000,
    Until: 03:49,1.000,
    Until: 04:34,0.048,
    Until: 04:39,1.000,
    Until: 11:49,0.000,
    Until: 11:51,1.000,
    Until: 12:36,0.048,
    Until: 12:41,1.000,
    Until: 12:42,0.000,
    Until: 12:44,1.000,
    Until: 13:29,0.048,
    Until: 13:34,1.000,
    Until: 24:00,0.000,
    Through: 5/5,
    For: AllDays,
    Until: 01:22,0.000,
    Until: 01:24,1.000,
    Until: 02:09,0.048,
    Until: 02:14,1.000,
    Until: 02:15,0.000,
    Until: 02:17,1.000,
    Until: 03:02,0.048,
    Until: 03:07,1.000,
    Until: 07:00,0.000,
    Until: 07:02,1.000,
    Until: 07:47,0.048,
    Until: 07:52,1.000,
    Until: 12:58,0.000,
    Until: 13:00,1.000,
    Until: 13:45,0.048,
    Until: 13:50,1.000,
    Until: 24:00,0.000,
    Through: 5/6,
    For: AllDays,
    Until: 00:11,0.000,
    Until: 00:13,1.000,
    Until: 00:58,0.048,
    Until: 01:03,1.000,
    Until: 04:03,0.000,
    Until: 04:05,1.000,
    Until: 04:50,0.048,
    Until: 04:55,1.000,
    Until: 07:55,0.000,
    Until: 07:57,1.000,
    Until: 08:42,0.048,
    Until: 08:47,1.000,
    Until: 12:56,0.000,
    Until: 12:58,1.000,
    Until: 13:43,0.048,
    Until: 13:48,1.000,
    Until: 14:37,0.000,
    Until: 14:39,1.000,
    Until: 15:24,0.048,
    Until: 15:29,1.000,
    Until: 24:00,0.000,
    Through: 5/7,
    For: AllDays,
    Until: 01:21,0.000,
    Until: 01:23,1.000,
    Until: 02:08,0.048,
    Until: 02:13,1.000,
    Until: 02:14,0.000,
    Until: 02:16,1.000,
    Until: 03:01,0.048,
    Until: 03:06,1.000,
    Until: 03:26,0.000,
    Until: 03:28,1.000,
    Until: 04:13,0.048,
    Until: 04:18,1.000,
    Until: 13:20,0.000,
    Until: 13:22,1.000,
    Until: 14:07,0.048,
    Until: 14:12,1.000,
    Until: 24:00,0.000,
    Through: 5/8,
    For: AllDays,
    Until: 02:09,0.000,
    Until: 02:11,1.000,
    Until: 02:56,0.048,
    Until: 03:01,1.000,
    Until: 03:02,0.000,
    Until: 03:04,1.000,
    Until: 03:49,0.048,
    Until: 03:54,1.000,
    Until: 07:06,0.000,
    Until: 07:08,1.000,
    Until: 07:53,0.048,
    Until: 07:58,1.000,
    Until: 10:45,0.000,
    Until: 10:47,1.000,
    Until: 11:32,0.048,
    Until: 11:37,1.000,
    Until: 13:07,0.000,
    Until: 13:09,1.000,
    Until: 13:54,0.048,
    Until: 13:59,1.000,
    Until: 24:00,0.000,
    Through: 5/9,
    For: AllDays,
    Until: 24:00,0.000,
    Through: 5/10,
    For: AllDays,
    Until: 24:00,0.000,
    Through: 5/11,
    For: AllDays,
    Until: 00:29,0.000,
    Until: 00:31,1.000,
    Until: 01:16,0.048,
    Until: 01:21,1.000,
    Until: 02:10,0.000,
    Until: 02:12,1.000,
    Until: 02:57,0.048,
    Until: 03:02,1.000,
    Until: 03:05,0.000,
    Until: 03:07,1.000,
    Until: 03:52,0.048,
    Until: 03:57,1.000,
    Until: 07:44,0.000,
    Until: 07:46,1.000,
    Until: 08:31,0.048,
    Until: 08:36,1.000,
    Until: 11:11,0.000,
    Until: 11:13,1.000,
    Until: 11:58,0.048,
    Until: 12:03,1.000,
    Until: 12:14,0.000,
    Until: 12:16,1.000,
    Until: 13:01,0.048,
    Until: 13:06,1.000,
    Until: 24:00,0.000,
    Through: 5/12,
    For: AllDays,
    Until: 00:56,0.000,
    Until: 00:58,1.000,
    Until: 01:43,0.048,
    Until: 01:48,1.000,
    Until: 04:10,0.000,
    Until: 04:12,1.000,
    Until: 04:57,0.048,
    Until: 05:02,1.000,
    Until: 08:36,0.000,
    Until: 08:38,1.000,
    Until: 09:23,0.048,
    Until: 09:28,1.000,
    Until: 11:56,0.000,
    Until: 11:58,1.000,
    Until: 12:43,0.048,
    Until: 12:48,1.000,
    Until: 18:39,0.000,
    Until: 18:41,1.000,
    Until: 19:26,0.048,
    Until: 19:31,1.000,
    Until: 24:00,0.000,
    Through: 5/13,
    For: AllDays,
    Until: 01:08,0.000,
    Until: 01:10,1.000,
    Until: 01:55,0.048,
    Until: 02:00,1.000,
    Until: 03:12,0.000,
    Until: 03:14,1.000,
    Until: 03:59,0.048,
    Until: 04:04,1.000,
    Until: 04:06,0.000,
    Until: 04:08,1.000,
    Until: 04:53,0.048,
    Until: 04:58,1.000,
    Until: 05:36,0.000,
    Until: 05:38,1.000,
    Until: 06:23,0.048,
    Until: 06:28,1.000,
    Until: 08:27,0.000,
    Until: 08:29,1.000,
    Until: 09:14,0.048,
    Until: 09:19,1.000,
    Until: 12:22,0.000,
    Until: 12:24,1.000,
    Until: 13:09,0.048,
    Until: 13:14,1.000,
    Until: 16:47,0.000,
    Until: 16:49,1.000,
    Until: 17:34,0.048,
    Until: 17:39,1.000,
    Until: 24:00,0.000,
    Through: 5/14,
    For: AllDays,
    Until: 01:28,0.000,
    Until: 01:30,1.000,
    Until: 02:15,0.048,
    Until: 02:20,1.000,
    Until: 04:17,0.000,
    Until: 04:19,1.000,
    Until: 05:04,0.048,
    Until: 05:09,1.000,
    Until: 13:17,0.000,
    Until: 13:19,1.000,
    Until: 14:04,0.048,
    Until: 14:09,1.000,
    Until: 24:00,0.000,
    Through: 5/15,
    For: AllDays,
    Until: 02:30,0.000,
    Until: 02:32,1.000,
    Until: 03:17,0.048,
    Until: 03:22,1.000,
    Until: 03:55,0.000,
    Until: 03:57,1.000,
    Until: 04:42,0.048,
    Until: 04:47,1.000,
    Until: 07:01,0.000,
    Until: 07:03,1.000,
    Until: 07:48,0.048,
    Until: 07:53,1.000,
    Until: 10:31,0.000,
    Until: 10:33,1.000,
    Until: 11:18,0.048,
    Until: 11:23,1.000,
    Until: 12:30,0.000,
    Until: 12:32,1.000,
    Until: 13:17,0.048,
    Until: 13:22,1.000,
    Until: 15:00,0.000,
    Until: 15:02,1.000,
    Until: 15:47,0.048,
    Until: 15:52,1.000,
    Until: 24:00,0.000,
    Through: 5/16,
    For: AllDays,
    Until: 24:00,0.000,
    Through: 5/17,
    For: AllDays,
    Until: 24:00,0.000,
    Through: 5/18,
    For: AllDays,
    Until: 01:20,0.000,
    Until: 01:22,1.000,
    Until: 02:07,0.048,
    Until: 02:12,1.000,
    Until: 02:36,0.000,
    Until: 02:38,1.000,
    Until: 03:23,0.048,
    Until: 03:28,1.000,
    Until: 04:23,0.000,
    Until: 04:25,1.000,
    Until: 05:10,0.048,
    Until: 05:15,1.000,
    Until: 05:31,0.000,
    Until: 05:33,1.000,
    Until: 06:18,0.048,
    Until: 06:23,1.000,
    Until: 06:28,0.000,
    Until: 06:30,1.000,
    Until: 07:15,0.048,
    Until: 07:20,1.000,
    Until: 10:25,0.000,
    Until: 10:27,1.000,
    Until: 11:12,0.048,
    Until: 11:17,1.000,
    Until: 24:00,0.000,
    Through: 5/19,
    For: AllDays,
    Until: 02:04,0.000,
    Until: 02:06,1.000,
    Until: 02:51,0.048,
    Until: 02:56,1.000,
    Until: 03:32,0.000,
    Until: 03:34,1.000,
    Until: 04:19,0.048,
    Until: 04:24,1.000,
    Until: 05:48,0.000,
    Until: 05:50,1.000,
    Until: 06:35,0.048,
    Until: 06:40,1.000,
    Until: 07:10,0.000,
    Until: 07:12,1.000,
    Until: 07:57,0.048,
    Until: 08:02,1.000,
    Until: 12:17,0.000,
    Until: 12:19,1.000,
    Until: 13:04,0.048,
    Until: 13:09,1.000,
    Until: 15:51,0.000,
    Until: 15:53,1.000,
    Until: 16:38,0.048,
    Until: 16:43,1.000,
    Until: 24:00,0.000,
    Through: 5/20,
    For: AllDays,
    Until: 02:21,0.000,
    Until: 02:23,1.000,
    Until: 03:08,0.048,
    Until: 03:13,1.000,
    Until: 03:16,0.000,
    Until: 03:18,1.000,
    Until: 04:03,0.048,
    Until: 04:08,1.000,
    Until: 05:53,0.000,
    Until: 05:55,1.000,
    Until: 06:40,0.048,
    Until: 06:45,1.000,
    Until: 12:13,0.000,
    Until: 12:15,1.000,
    Until: 13:00,0.048,
    Until: 13:05,1.000,
    Until: 16:55,0.000,
    Until: 16:57,1.000,
    Until: 17:42,0.048,
    Until: 17:47,1.000,
    Until: 24:00,0.000,
    Through: 5/21,
    For: AllDays,
    Until: 00:51,0.000,
    Until: 00:53,1.000,
    Until: 01:38,0.048,
    Until: 01:43,1.000,
    Until: 02:19,0.000,
    Until: 02:21,1.000,
    Until: 03:06,0.048,
    Until: 03:11,1.000,
    Until: 10:24,0.000,
    Until: 10:26,1.000,
    Until: 11:11,0.048,
    Until: 11:16,1.000,
    Until: 13:13,0.000,
    Until: 13:15,1.000,
    Until: 14:00,0.048,
    Until: 14:05,1.000,
    Until: 24:00,0.000,
    Through: 5/22,
    For: AllDays,
    Until: 03:04,0.000,
    Until: 03:06,1.000,
    Until: 03:51,0.048,
    Until: 03:56,1.000,
    Until: 04:15,0.000,
    Until: 04:17,1.000,
    Until: 05:02,0.048,
    Until: 05:07,1.000,
    Until: 07:07,0.000,
    Until: 07:09,1.000,
    Until: 07:54,0.048,
    Until: 07:59,1.000,
    Until: 12:10,0.000,
    Until: 12:12,1.000,
    Until: 12:57,0.048,
    Until: 13:02,1.000,
    Until: 15:37,0.000,
    Until: 15:39,1.000,
    Until: 16:24,0.048,
    Until: 16:29,1.000,
    Until: 24:00,0.000,
    Through: 5/23,
    For: AllDays,
    Until: 24:00,0.000,
    Through: 5/24,
    For: AllDays,
    Until: 24:00,0.000,
    Through: 5/25,
    For: AllDays,
    Until: 01:06,0.000,
    Until: 01:08,1.000,
    Until: 01:53,0.048,
    Until: 01:58,1.000,
    Until: 03:21,0.000,
    Until: 03:23,1.000,
    Until: 04:08,0.048,
    Until: 04:13,1.000,
    Until: 06:07,0.000,
    Until: 06:09,1.000,
    Until: 06:54,0.048,
    Until: 06:59,1.000,
    Until: 11:28,0.000,
    Until: 11:30,1.000,
    Until: 12:15,0.048,
    Until: 12:20,1.000,
    Until: 12:59,0.000,
    Until: 13:01,1.000,
    Until: 13:46,0.048,
    Until: 13:51,1.000,
    Until: 15:49,0.000,
    Until: 15:51,1.000,
    Until: 16:36,0.048,
    Until: 16:41,1.000,
    Until: 24:00,0.000,
    Through: 5/26,
    For: AllDays,
    Until: 01:17,0.000,
    Until: 01:19,1.000,
    Until: 02:04,0.048,
    Until: 02:09,1.000,
    Until: 02:10,0.000,
    Until: 02:12,1.000,
    Until: 02:57,0.048,
    Until: 03:02,1.000,
    Until: 07:18,0.000,
    Until: 07:20,1.000,
    Until: 08:05,0.048,
    Until: 08:10,1.000,
    Until: 13:11,0.000,
    Until: 13:13,1.000,
    Until: 13:58,0.048,
    Until: 14:03,1.000,
    Until: 18:00,0.000,
    Until: 18:02,1.000,
    Until: 18:47,0.048,
    Until: 18:52,1.000,
    Until: 24:00,0.000,
    Through: 5/27,
    For: AllDays,
    Until: 01:41,0.000,
    Until: 01:43,1.000,
    Until: 02:28,0.048,
    Until: 02:33,1.000,
    Until: 02:34,0.000,
    Until: 02:36,1.000,
    Until: 03:21,0.048,
    Until: 03:26,1.000,
    Until: 06:01,0.000,
    Until: 06:03,1.000,
    Until: 06:48,0.048,
    Until: 06:53,1.000,
    Until: 07:10,0.000,
    Until: 07:12,1.000,
    Until: 07:57,0.048,
    Until: 08:02,1.000,
    Until: 11:16,0.000,
    Until: 11:18,1.000,
    Until: 12:03,0.048,
    Until: 12:08,1.000,
    Until: 24:00,0.000,
    Through: 5/28,
    For: AllDays,
    Until: 03:30,0.000,
    Until: 03:32,1.000,
    Until: 04:17,0.048,
    Until: 04:22,1.000,
    Until: 04:23,0.000,
    Until: 04:25,1.000,
    Until: 05:10,0.048,
    Until: 05:15,1.000,
    Until: 05:44,0.000,
    Until: 05:46,1.000,
    Until: 06:31,0.048,
    Until: 06:36,1.000,
    Until: 07:14,0.000,
    Until: 07:16,1.000,
    Until: 08:01,0.048,
    Until: 08:06,1.000,
    Until: 12:05,0.000,
    Until: 12:07,1.000,
    Until: 12:52,0.048,
    Until: 12:57,1.000,
    Until: 24:00,0.000,
    Through: 5/29,
    For: AllDays,
    Until: 01:37,0.000,
    Until: 01:39,1.000,
    Until: 02:24,0.048,
    Until: 02:29,1.000,
    Until: 03:30,0.000,
    Until: 03:32,1.000,
    Until: 04:17,0.048,
    Until: 04:22,1.000,
    Until: 04:23,0.000,
    Until: 04:25,1.000,
    Until: 05:10,0.048,
    Until: 05:15,1.000,
    Until: 07:03,0.000,
    Until: 07:05,1.000,
    Until: 07:50,0.048,
    Until: 07:55,1.000,
    Until: 11:23,0.000,
    Until: 11:25,1.000,
    Until: 12:10,0.048,
    Until: 12:15,1.000,
    Until: 12:29,0.000,
    Until: 12:31,1.000,
    Until: 13:16,0.048,
    Until: 13:21,1.000,
    Until: 16:17,0.000,
    Until: 16:19,1.000,
    Until: 17:04,0.048,
    Until: 17:09,1.000,
    Until: 24:00,0.000,
    Through: 5/30,
    For: AllDays,
    Until: 24:00,0.000,
    Through: 5/31,
    For: AllDays,
    Until: 24:00,0.000,
    Through: 6/1,
    For: AllDays,
    Until: 00:47,0.000,
    Until: 00:49,1.000,
    Until: 01:34,0.048,
    Until: 01:39,1.000,
    Until: 02:15,0.000,
    Until: 02:17,1.000,
    Until: 03:02,0.048,
    Until: 03:07,1.000,
    Until: 08:27,0.000,
    Until: 08:29,1.000,
    Until: 09:14,0.048,
    Until: 09:19,1.000,
    Until: 11:01,0.000,
    Until: 11:03,1.000,
    Until: 11:48,0.048,
    Until: 11:53,1.000,
    Until: 13:10,0.000,
    Until: 13:12,1.000,
    Until: 13:57,0.048,
    Until: 14:02,1.000,
    Until: 18:23,0.000,
    Until: 18:25,1.000,
    Until: 19:10,0.048,
    Until: 19:15,1.000,
    Until: 24:00,0.000,
    Through: 6/2,
    For: AllDays,
    Until: 01:49,0.000,
    Until: 01:51,1.000,
    Until: 02:36,0.048,
    Until: 02:41,1.000,
    Until: 03:07,0.000,
    Until: 03:09,1.000,
    Until: 03:54,0.048,
    Until: 03:59,1.000,
    Until: 04:17,0.000,
    Until: 04:19,1.000,
    Until: 05:04,0.048,
    Until: 05:09,1.000,
    Until: 07:09,0.000,
    Until: 07:11,1.000,
    Until: 07:56,0.048,
    Until: 08:01,1.000,
    Until: 11:20,0.000,
    Until: 11:22,1.000,
    Until: 12:07,0.048,
    Until: 12:12,1.000,
    Until: 13:03,0.000,
    Until: 13:05,1.000,
    Until: 13:50,0.048,
    Until: 13:55,1.000,
    Until: 24:00,0.000,
    Through: 6/3,
    For: AllDays,
    Until: 00:11,0.000,
    Until: 00:13,1.000,
    Until: 00:58,0.048,
    Until: 01:03,1.000,
    Until: 02:47,0.000,
    Until: 02:49,1.000,
    Until: 03:34,0.048,
    Until: 03:39,1.000,
    Until: 04:34,0.000,
    Until: 04:36,1.000,
    Until: 05:21,0.048,
    Until: 05:26,1.000,
    Until: 10:35,0.000,
    Until: 10:37,1.000,
    Until: 11:22,0.048,
    Until: 11:27,1.000,
    Until: 15:52,0.000,
    Until: 15:54,1.000,
    Until: 16:39,0.048,
    Until: 16:44,1.000,
    Until: 24:00,0.000,
    Through: 6/4,
    For: AllDays,
    Until: 01:30,0.000,
    Until: 01:32,1.000,
    Until: 02:17,0.048,
    Until: 02:22,1.000,
    Until: 02:30,0.000,
    Until: 02:32,1.000,
    Until: 03:17,0.048,
    Until: 03:22,1.000,
    Until: 03:46,0.000,
    Until: 03:48,1.000,
    Until: 04:33,0.048,
    Until: 04:38,1.000,
    Until: 12:53,0.000,
    Until: 12:55,1.000,
    Until: 13:40,0.048,
    Until: 13:45,1.000,
    Until: 24:00,0.000,
    Through: 6/5,
    For: AllDays,
    Until: 01:02,0.000,
    Until: 01:04,1.000,
    Until: 01:49,0.048,
    Until: 01:54,1.000,
    Until: 01:55,0.000,
    Until: 01:57,1.000,
    Until: 02:42,0.048,
    Until: 02:47,1.000,
    Until: 11:23,0.000,
    Until: 11:25,1.000,
    Until: 12:10,0.048,
    Until: 12:15,1.000,
    Until: 13:08,0.000,
    Until: 13:10,1.000,
    Until: 13:55,0.048,
    Until: 14:00,1.000,
    Until: 15:38,0.000,
    Until: 15:40,1.000,
    Until: 16:25,0.048,
    Until: 16:30,1.000,
    Until: 24:00,0.000,
    Through: 6/6,
    For: AllDays,
    Until: 24:00,0.000,
    Through: 6/7,
    For: AllDays,
    Until: 24:00,0.000,
    Through: 6/8,
    For: AllDays,
    Until: 02:14,0.000,
    Until: 02:16,1.000,
    Until: 03:01,0.048,
    Until: 03:06,1.000,
    Until: 04:09,0.000,
    Until: 04:11,1.000,
    Until: 04:56,0.048,
    Until: 05:01,1.000,
    Until: 05:24,0.000,
    Until: 05:26,1.000,
    Until: 06:11,0.048,
    Until: 06:16,1.000,
    Until: 13:04,0.000,
    Until: 13:06,1.000,
    Until: 13:51,0.048,
    Until: 13:56,1.000,
    Until: 24:00,0.000,
    Through: 6/9,
    For: AllDays,
    Until: 00:44,0.000,
    Until: 00:46,1.000,
    Until: 01:31,0.048,
    Until: 01:36,1.000,
    Until: 01:38,0.000,
    Until: 01:40,1.000,
    Until: 02:25,0.048,
    Until: 02:30,1.000,
    Until: 02:56,0.000,
    Until: 02:58,1.000,
    Until: 03:43,0.048,
    Until: 03:48,1.000,
    Until: 06:00,0.000,
    Until: 06:02,1.000,
    Until: 06:47,0.048,
    Until: 06:52,1.000,
    Until: 13:26,0.000,
    Until: 13:28,1.000,
    Until: 14:13,0.048,
    Until: 14:18,1.000,
    Until: 24:00,0.000,
    Through: 6/10,
    For: AllDays,
    Until: 01:51,0.000,
    Until: 01:53,1.000,
    Until: 02:38,0.048,
    Until: 02:43,1.000,
    Until: 03:20,0.000,
    Until: 03:22,1.000,
    Until: 04:07,0.048,
    Until: 04:12,1.000,
    Until: 12:25,0.000,
    Until: 12:27,1.000,
    Until: 13:12,0.048,
    Until: 13:17,1.000,
    Until: 16:06,0.000,
    Until: 16:08,1.000,
    Until: 16:53,0.048,
    Until: 16:58,1.000,
    Until: 24:00,0.000,
    Through: 6/11,
    For: AllDays,
    Until: 03:18,0.000,
    Until: 03:20,1.000,
    Until: 04:05,0.048,
    Until: 04:10,1.000,
    Until: 12:04,0.000,
    Until: 12:06,1.000,
    Until: 12:51,0.048,
    Until: 12:56,1.000,
    Until: 24:00,0.000,
    Through: 6/12,
    For: AllDays,
    Until: 01:01,0.000,
    Until: 01:03,1.000,
    Until: 01:48,0.048,
    Until: 01:53,1.000,
    Until: 02:17,0.000,
    Until: 02:19,1.000,
    Until: 03:04,0.048,
    Until: 03:09,1.000,
    Until: 03:49,0.000,
    Until: 03:51,1.000,
    Until: 04:36,0.048,
    Until: 04:41,1.000,
    Until: 11:30,0.000,
    Until: 11:32,1.000,
    Until: 12:17,0.048,
    Until: 12:22,1.000,
    Until: 12:29,0.000,
    Until: 12:31,1.000,
    Until: 13:16,0.048,
    Until: 13:21,1.000,
    Until: 24:00,0.000,
    Through: 6/13,
    For: AllDays,
    Until: 24:00,0.000,
    Through: 6/14,
    For: AllDays,
    Until: 24:00,0.000,
    Through: 6/15,
    For: AllDays,
    Until: 01:36,0.000,
    Until: 01:38,1.000,
    Until: 02:23,0.048,
    Until: 02:28,1.000,
    Until: 02:45,0.000,
    Until: 02:47,1.000,
    Until: 03:32,0.048,
    Until: 03:37,1.000,
    Until: 06:52,0.000,
    Until: 06:54,1.000,
    Until: 07:39,0.048,
    Until: 07:44,1.000,
    Until: 11:50,0.000,
    Until: 11:52,1.000,
    Until: 12:37,0.048,
    Until: 12:42,1.000,
    Until: 18:34,0.000,
    Until: 18:36,1.000,
    Until: 19:21,0.048,
    Until: 19:26,1.000,
    Until: 24:00,0.000,
    Through: 6/16,
    For: AllDays,
    Until: 01:45,0.000,
    Until: 01:47,1.000,
    Until: 02:32,0.048,
    Until: 02:37,1.000,
    Until: 03:47,0.000,
    Until: 03:49,1.000,
    Until: 04:34,0.048,
    Until: 04:39,1.000,
    Until: 10:07,0.000,
    Until: 10:09,1.000,
    Until: 10:54,0.048,
    Until: 10:59,1.000,
    Until: 11:15,0.000,
    Until: 11:17,1.000,
    Until: 12:02,0.048,
    Until: 12:07,1.000,
    Until: 24:00,0.000,
    Through: 6/17,
    For: AllDays,
    Until: 02:39,0.000,
    Until: 02:41,1.000,
    Until: 03:26,0.048,
    Until: 03:31,1.000,
    Until: 03:32,0.000,
    Until: 03:34,1.000,
    Until: 04:19,0.048,
    Until: 04:24,1.000,
    Until: 06:20,0.000,
    Until: 06:22,1.000,
    Until: 07:07,0.048,
    Until: 07:12,1.000,
    Until: 11:40,0.000,
    Until: 11:42,1.000,
    Until: 12:27,0.048,
    Until: 12:32,1.000,
    Until: 13:10,0.000,
    Until: 13:12,1.000,
    Until: 13:57,0.048,
    Until: 14:02,1.000,
    Until: 24:00,0.000,
    Through: 6/18,
    For: AllDays,
    Until: 01:34,0.000,
    Until: 01:36,1.000,
    Until: 02:21,0.048,
    Until: 02:26,1.000,
    Until: 03:56,0.000,
    Until: 03:58,1.000,
    Until: 04:43,0.048,
    Until: 04:48,1.000,
    Until: 05:40,0.000,
    Until: 05:42,1.000,
    Until: 06:27,0.048,
    Until: 06:32,1.000,
    Until: 10:49,0.000,
    Until: 10:51,1.000,
    Until: 11:36,0.048,
    Until: 11:41,1.000,
    Until: 13:14,0.000,
    Until: 13:16,1.000,
    Until: 14:01,0.048,
    Until: 14:06,1.000,
    Until: 24:00,0.000,
    Through: 6/19,
    For: AllDays,
    Until: 02:59,0.000,
    Until: 03:01,1.000,
    Until: 03:46,0.048,
    Until: 03:51,1.000,
    Until: 03:52,0.000,
    Until: 03:54,1.000,
    Until: 04:39,0.048,
    Until: 04:44,1.000,
    Until: 07:11,0.000,
    Until: 07:13,1.000,
    Until: 07:58,0.048,
    Until: 08:03,1.000,
    Until: 11:21,0.000,
    Until: 11:23,1.000,
    Until: 12:08,0.048,
    Until: 12:13,1.000,
    Until: 13:07,0.000,
    Until: 13:09,1.000,
    Until: 13:54,0.048,
    Until: 13:59,1.000,
    Until: 15:43,0.000,
    Until: 15:45,1.000,
    Until: 16:30,0.048,
    Until: 16:35,1.000,
    Until: 24:00,0.000,
    Through: 6/20,
    For: AllDays,
    Until: 24:00,0.000,
    Through: 6/21,
    For: AllDays,
    Until: 24:00,0.000,
    Through: 6/22,
    For: AllDays,
    Until: 01:42,0.000,
    Until: 01:44,1.000,
    Until: 02:29,0.048,
    Until: 02:34,1.000,
    Until: 03:09,0.000,
    Until: 03:11,1.000,
    Until: 03:56,0.048,
    Until: 04:01,1.000,
    Until: 05:43,0.000,
    Until: 05:45,1.000,
    Until: 06:30,0.048,
    Until: 06:35,1.000,
    Until: 08:12,0.000,
    Until: 08:14,1.000,
    Until: 08:59,0.048,
    Until: 09:04,1.000,
    Until: 11:11,0.000,
    Until: 11:13,1.000,
    Until: 11:58,0.048,
    Until: 12:03,1.000,
    Until: 16:17,0.000,
    Until: 16:19,1.000,
    Until: 17:04,0.048,
    Until: 17:09,1.000,
    Until: 24:00,0.000,
    Through: 6/23,
    For: AllDays,
    Until: 01:14,0.000,
    Until: 01:16,1.000,
    Until: 02:01,0.048,
    Until: 02:06,1.000,
    Until: 02:56,0.000,
    Until: 02:58,1.000,
    Until: 03:43,0.048,
    Until: 03:48,1.000,
    Until: 11:52,0.000,
    Until: 11:54,1.000,
    Until: 12:39,0.048,
    Until: 12:44,1.000,
    Until: 15:22,0.000,
    Until: 15:24,1.000,
    Until: 16:09,0.048,
    Until: 16:14,1.000,
    Until: 24:00,0.000,
    Through: 6/24,
    For: AllDays,
    Until: 01:37,0.000,
    Until: 01:39,1.000,
    Until: 02:24,0.048,
    Until: 02:29,1.000,
    Until: 02:42,0.000,
    Until: 02:44,1.000,
    Until: 03:29,0.048,
    Until: 03:34,1.000,
    Until: 12:32,0.000,
    Until: 12:34,1.000,
    Until: 13:19,0.048,
    Until: 13:24,1.000,
    Until: 24:00,0.000,
    Through: 6/25,
    For: AllDays,
    Until: 02:36,0.000,
    Until: 02:38,1.000,
    Until: 03:23,0.048,
    Until: 03:28,1.000,
    Until: 07:20,0.000,
    Until: 07:22,1.000,
    Until: 08:07,0.048,
    Until: 08:12,1.000,
    Until: 11:11,0.000,
    Until: 11:13,1.000,
    Until: 11:58,0.048,
    Until: 12:03,1.000,
    Until: 13:52,0.000,
    Until: 13:54,1.000,
    Until: 14:39,0.048,
    Until: 14:44,1.000,
    Until: 15:25,0.000,
    Until: 15:27,1.000,
    Until: 16:12,0.048,
    Until: 16:17,1.000,
    Until: 24:00,0.000,
    Through: 6/26,
    For: AllDays,
    Until: 00:02,0.000,
    Until: 00:04,1.000,
    Until: 00:49,0.048,
    Until: 00:54,1.000,
    Until: 03:18,0.000,
    Until: 03:20,1.000,
    Until: 04:05,0.048,
    Until: 04:10,1.000,
    Until: 06:07,0.000,
    Until: 06:09,1.000,
    Until: 06:54,0.048,
    Until: 06:59,1.000,
    Until: 10:59,0.000,
    Until: 11:01,1.000,
    Until: 11:46,0.048,
    Until: 11:51,1.000,
    Until: 12:33,0.000,
    Until: 12:35,1.000,
    Until: 13:20,0.048,
    Until: 13:25,1.000,
    Until: 24:00,0.000,
    Through: 6/27,
    For: AllDays,
    Until: 24:00,0.000,
    Through: 6/28,
    For: AllDays,
    Until: 24:00,0.000,
    Through: 6/29,
    For: AllDays,
    Until: 02:33,0.000,
    Until: 02:35,1.000,
    Until: 03:20,0.048,
    Until: 03:25,1.000,
    Until: 03:57,0.000,
    Until: 03:59,1.000,
    Until: 04:44,0.048,
    Until: 04:49,1.000,
    Until: 09:29,0.000,
    Until: 09:31,1.000,
    Until: 10:16,0.048,
    Until: 10:21,1.000,
    Until: 11:19,0.000,
    Until: 11:21,1.000,
    Until: 12:06,0.048,
    Until: 12:11,1.000,
    Until: 24:00,0.000,
    Through: 6/30,
    For: AllDays,
    Until: 04:31,0.000,
    Until: 04:33,1.000,
    Until: 05:18,0.048,
    Until: 05:23,1.000,
    Until: 11:31,0.000,
    Until: 11:33,1.000,
    Until: 12:18,0.048,
    Until: 12:23,1.000,
    Until: 24:00,0.000,
    Through: 7/1,
    For: AllDays,
    Until: 01:58,0.000,
    Until: 02:00,1.000,
    Until: 02:45,0.048,
    Until: 02:50,1.000,
    Until: 02:51,0.000,
    Until: 02:53,1.000,
    Until: 03:38,0.048,
    Until: 03:43,1.000,
    Until: 07:47,0.000,
    Until: 07:49,1.000,
    Until: 08:34,0.048,
    Until: 08:39,1.000,
    Until: 11:36,0.000,
    Until: 11:38,1.000,
    Until: 12:23,0.048,
    Until: 12:28,1.000,
    Until: 12:57,0.000,
    Until: 12:59,1.000,
    Until: 13:44,0.048,
    Until: 13:49,1.000,
    Until: 15:52,0.000,
    Until: 15:54,1.000,
    Until: 16:39,0.048,
    Until: 16:44,1.000,
    Until: 24:00,0.000,
    Through: 7/2,
    For: AllDays,
    Until: 02:23,0.000,
    Until: 02:25,1.000,
    Until: 03:10,0.048,
    Until: 03:15,1.000,
    Until: 03:43,0.000,
    Until: 03:45,1.000,
    Until: 04:30,0.048,
    Until: 04:35,1.000,
    Until: 06:13,0.000,
    Until: 06:15,1.000,
    Until: 07:00,0.048,
    Until: 07:05,1.000,
    Until: 10:26,0.000,
    Until: 10:28,1.000,
    Until: 11:13,0.048,
    Until: 11:18,1.000,
    Until: 11:25,0.000,
    Until: 11:27,1.000,
    Until: 12:12,0.048,
    Until: 12:17,1.000,
    Until: 12:39,0.000,
    Until: 12:41,1.000,
    Until: 13:26,0.048,
    Until: 13:31,1.000,
    Until: 24:00,0.000,
    Through: 7/3,
    For: AllDays,
    Until: 00:28,0.000,
    Until: 00:30,1.000,
    Until: 01:15,0.048,
    Until: 01:20,1.000,
    Until: 02:23,0.000,
    Until: 02:25,1.000,
    Until: 03:10,0.048,
    Until: 03:15,1.000,
    Until: 03:43,0.000,
    Until: 03:45,1.000,
    Until: 04:30,0.048,
    Until: 04:35,1.000,
    Until: 05:41,0.000,
    Until: 05:43,1.000,
    Until: 06:28,0.048,
    Until: 06:33,1.000,
    Until: 11:02,0.000,
    Until: 11:04,1.000,
    Until: 11:49,0.048,
    Until: 11:54,1.000,
    Until: 13:30,0.000,
    Until: 13:32,1.000,
    Until: 14:17,0.048,
    Until: 14:22,1.000,
    Until: 24:00,0.000,
    Through: 7/4,
    For: AllDays,
    Until: 24:00,0.000,
    Through: 7/5,
    For: AllDays,
    Until: 24:00,0.000,
    Through: 7/6,
    For: AllDays,
    Until: 01:18,0.000,
    Until: 01:20,1.000,
    Until: 02:05,0.048,
    Until: 02:10,1.000,
    Until: 03:04,0.000,
    Until: 03:06,1.000,
    Until: 03:51,0.048,
    Until: 03:56,1.000,
    Until: 04:12,0.000,
    Until: 04:14,1.000,
    Until: 04:59,0.048,
    Until: 05:04,1.000,
    Until: 06:42,0.000,
    Until: 06:44,1.000,
    Until: 07:29,0.048,
    Until: 07:34,1.000,
    Until: 10:01,0.000,
    Until: 10:03,1.000,
    Until: 10:48,0.048,
    Until: 10:53,1.000,
    Until: 12:49,0.000,
    Until: 12:51,1.000,
    Until: 13:36,0.048,
    Until: 13:41,1.000,
    Until: 24:00,0.000,
    Through: 7/7,
    For: AllDays,
    Until: 02:54,0.000,
    Until: 02:56,1.000,
    Until: 03:41,0.048,
    Until: 03:46,1.000,
    Until: 03:47,0.000,
    Until: 03:49,1.000,
    Until: 04:34,0.048,
    Until: 04:39,1.000,
    Until: 05:28,0.000,
    Until: 05:30,1.000,
    Until: 06:15,0.048,
    Until: 06:20,1.000,
    Until: 06:25,0.000,
    Until: 06:27,1.000,
    Until: 07:12,0.048,
    Until: 07:17,1.000,
    Until: 11:53,0.000,
    Until: 11:55,1.000,
    Until: 12:40,0.048,
    Until: 12:45,1.000,
    Until: 15:55,0.000,
    Until: 15:57,1.000,
    Until: 16:42,0.048,
    Until: 16:47,1.000,
    Until: 24:00,0.000,
    Through: 7/8,
    For: AllDays,
    Until: 00:20,0.000,
    Until: 00:22,1.000,
    Until: 01:07,0.048,
    Until: 01:12,1.000,
    Until: 03:57,0.000,
    Until: 03:59,1.000,
    Until: 04:44,0.048,
    Until: 04:49,1.000,
    Until: 04:50,0.000,
    Until: 04:52,1.000,
    Until: 05:37,0.048,
    Until: 05:42,1.000,
    Until: 07:31,0.000,
    Until: 07:33,1.000,
    Until: 08:18,0.048,
    Until: 08:23,1.000,
    Until: 12:31,0.000,
    Until: 12:33,1.000,
    Until: 13:18,0.048,
    Until: 13:23,1.000,
    Until: 15:43,0.000,
    Until: 15:45,1.000,
    Until: 16:30,0.048,
    Until: 16:35,1.000,
    Until: 24:00,0.000,
    Through: 7/9,
    For: AllDays,
    Until: 00:54,0.000,
    Until: 00:56,1.000,
    Until: 01:41,0.048,
    Until: 01:46,1.000,
    Until: 02:35,0.000,
    Until: 02:37,1.000,
    Until: 03:22,0.048,
    Until: 03:27,1.000,
    Until: 03:43,0.000,
    Until: 03:45,1.000,
    Until: 04:30,0.048,
    Until: 04:35,1.000,
    Until: 06:24,0.000,
    Until: 06:26,1.000,
    Until: 07:11,0.048,
    Until: 07:16,1.000,
    Until: 13:21,0.000,
    Until: 13:23,1.000,
    Until: 14:08,0.048,
    Until: 14:13,1.000,
    Until: 24:00,0.000,
    Through: 7/10,
    For: AllDays,
    Until: 01:41,0.000,
    Until: 01:43,1.000,
    Until: 02:28,0.048,
    Until: 02:33,1.000,
    Until: 03:10,0.000,
    Until: 03:12,1.000,
    Until: 03:57,0.048,
    Until: 04:02,1.000,
    Until: 04:29,0.000,
    Until: 04:31,1.000,
    Until: 05:16,0.048,
    Until: 05:21,1.000,
    Until: 05:47,0.000,
    Until: 05:49,1.000,
    Until: 06:34,0.048,
    Until: 06:39,1.000,
    Until: 10:28,0.000,
    Until: 10:30,1.000,
    Until: 11:15,0.048,
    Until: 11:20,1.000,
    Until: 12:05,0.000,
    Until: 12:07,1.000,
    Until: 12:52,0.048,
    Until: 12:57,1.000,
    Until: 24:00,0.000,
    Through: 7/11,
    For: AllDays,
    Until: 24:00,0.000,
    Through: 7/12,
    For: AllDays,
    Until: 24:00,0.000,
    Through: 7/13,
    For: AllDays,
    Until: 02:37,0.000,
    Until: 02:39,1.000,
    Until: 03:24,0.048,
    Until: 03:29,1.000,
    Until: 03:52,0.000,
    Until: 03:54,1.000,
    Until: 04:39,0.048,
    Until: 04:44,1.000,
    Until: 06:07,0.000,
    Until: 06:09,1.000,
    Until: 06:54,0.048,
    Until: 06:59,1.000,
    Until: 07:19,0.000,
    Until: 07:21,1.000,
    Until: 08:06,0.048,
    Until: 08:11,1.000,
    Until: 10:51,0.000,
    Until: 10:53,1.000,
    Until: 11:38,0.048,
    Until: 11:43,1.000,
    Until: 11:58,0.000,
    Until: 12:00,1.000,
    Until: 12:45,0.048,
    Until: 12:50,1.000,
    Until: 24:00,0.000,
    Through: 7/14,
    For: AllDays,
    Until: 00:21,0.000,
    Until: 00:23,1.000,
    Until: 01:08,0.048,
    Until: 01:13,1.000,
    Until: 01:50,0.000,
    Until: 01:52,1.000,
    Until: 02:37,0.048,
    Until: 02:42,1.000,
    Until: 02:55,0.000,
    Until: 02:57,1.000,
    Until: 03:42,0.048,
    Until: 03:47,1.000,
    Until: 06:31,0.000,
    Until: 06:33,1.000,
    Until: 07:18,0.048,
    Until: 07:23,1.000,
    Until: 12:27,0.000,
    Until: 12:29,1.000,
    Until: 13:14,0.048,
    Until: 13:19,1.000,
    Until: 17:00,0.000,
    Until: 17:02,1.000,
    Until: 17:47,0.048,
    Until: 17:52,1.000,
    Until: 24:00,0.000,
    Through: 7/15,
    For: AllDays,
    Until: 01:03,0.000,
    Until: 01:05,1.000,
    Until: 01:50,0.048,
    Until: 01:55,1.000,
    Until: 02:52,0.000,
    Until: 02:54,1.000,
    Until: 03:39,0.048,
    Until: 03:44,1.000,
    Until: 04:09,0.000,
    Until: 04:11,1.000,
    Until: 04:56,0.048,
    Until: 05:01,1.000,
    Until: 11:59,0.000,
    Until: 12:01,1.000,
    Until: 12:46,0.048,
    Until: 12:51,1.000,
    Until: 15:41,0.000,
    Until: 15:43,1.000,
    Until: 16:28,0.048,
    Until: 16:33,1.000,
    Until: 24:00,0.000,
    Through: 7/16,
    For: AllDays,
    Until: 01:59,0.000,
    Until: 02:01,1.000,
    Until: 02:46,0.048,
    Until: 02:51,1.000,
    Until: 02:52,0.000,
    Until: 02:54,1.000,
    Until: 03:39,0.048,
    Until: 03:44,1.000,
    Until: 04:29,0.000,
    Until: 04:31,1.000,
    Until: 05:16,0.048,
    Until: 05:21,1.000,
    Until: 05:32,0.000,
    Until: 05:34,1.000,
    Until: 06:19,0.048,
    Until: 06:24,1.000,
    Until: 10:36,0.000,
    Until: 10:38,1.000,
    Until: 11:23,0.048,
    Until: 11:28,1.000,
    Until: 11:55,0.000,
    Until: 11:57,1.000,
    Until: 12:42,0.048,
    Until: 12:47,1.000,
    Until: 24:00,0.000,
    Through: 7/17,
    For: AllDays,
    Until: 01:50,0.000,
    Until: 01:52,1.000,
    Until: 02:37,0.048,
    Until: 02:42,1.000,
    Until: 02:43,0.000,
    Until: 02:45,1.000,
    Until: 03:30,0.048,
    Until: 03:35,1.000,
    Until: 03:44,0.000,
    Until: 03:46,1.000,
    Until: 04:31,0.048,
    Until: 04:36,1.000,
    Until: 09:11,0.000,
    Until: 09:13,1.000,
    Until: 09:58,0.048,
    Until: 10:03,1.000,
    Until: 10:10,0.000,
    Until: 10:12,1.000,
    Until: 10:57,0.048,
    Until: 11:02,1.000,
    Until: 11:07,0.000,
    Until: 11:09,1.000,
    Until: 11:54,0.048,
    Until: 11:59,1.000,
    Until: 15:50,0.000,
    Until: 15:52,1.000,
    Until: 16:37,0.048,
    Until: 16:42,1.000,
    Until: 24:00,0.000,
    Through: 7/18,
    For: AllDays,
    Until: 24:00,0.000,
    Through: 7/19,
    For: AllDays,
    Until: 24:00,0.000,
    Through: 7/20,
    For: AllDays,
    Until: 02:04,0.000,
    Until: 02:06,1.000,
    Until: 02:51,0.048,
    Until: 02:56,1.000,
    Until: 02:57,0.000,
    Until: 02:59,1.000,
    Until: 03:44,0.048,
    Until: 03:49,1.000,
    Until: 08:32,0.000,
    Until: 08:34,1.000,
    Until: 09:19,0.048,
    Until: 09:24,1.000,
    Until: 10:46,0.000,
    Until: 10:48,1.000,
    Until: 11:33,0.048,
    Until: 11:38,1.000,
    Until: 12:08,0.000,
    Until: 12:10,1.000,
    Until: 12:55,0.048,
    Until: 13:00,1.000,
    Until: 13:32,0.000,
    Until: 13:34,1.000,
    Until: 14:19,0.048,
    Until: 14:24,1.000,
    Until: 16:04,0.000,
    Until: 16:06,1.000,
    Until: 16:51,0.048,
    Until: 16:56,1.000,
    Until: 24:00,0.000,
    Through: 7/21,
    For: AllDays,
    Until: 01:12,0.000,
    Until: 01:14,1.000,
    Until: 01:59,0.048,
    Until: 02:04,1.000,
    Until: 03:14,0.000,
    Until: 03:16,1.000,
    Until: 04:01,0.048,
    Until: 04:06,1.000,
    Until: 04:33,0.000,
    Until: 04:35,1.000,
    Until: 05:20,0.048,
    Until: 05:25,1.000,
    Until: 06:51,0.000,
    Until: 06:53,1.000,
    Until: 07:38,0.048,
    Until: 07:43,1.000,
    Until: 09:58,0.000,
    Until: 10:00,1.000,
    Until: 10:45,0.048,
    Until: 10:50,1.000,
    Until: 12:31,0.000,
    Until: 12:33,1.000,
    Until: 13:18,0.048,
    Until: 13:23,1.000,
    Until: 15:02,0.000,
    Until: 15:04,1.000,
    Until: 15:49,0.048,
    Until: 15:54,1.000,
    Until: 16:10,0.000,
    Until: 16:12,1.000,
    Until: 16:57,0.048,
    Until: 17:02,1.000,
    Until: 24:00,0.000,
    Through: 7/22,
    For: AllDays,
    Until: 00:35,0.000,
    Until: 00:37,1.000,
    Until: 01:22,0.048,
    Until: 01:27,1.000,
    Until: 01:29,0.000,
    Until: 01:31,1.000,
    Until: 02:16,0.048,
    Until: 02:21,1.000,
    Until: 02:22,0.000,
    Until: 02:24,1.000,
    Until: 03:09,0.048,
    Until: 03:14,1.000,
    Until: 06:48,0.000,
    Until: 06:50,1.000,
    Until: 07:35,0.048,
    Until: 07:40,1.000,
    Until: 10:06,0.000,
    Until: 10:08,1.000,
    Until: 10:53,0.048,
    Until: 10:58,1.000,
    Until: 11:08,0.000,
    Until: 11:10,1.000,
    Until: 11:55,0.048,
    Until: 12:00,1.000,
    Until: 24:00,0.000,
    Through: 7/23,
    For: AllDays,
    Until: 02:21,0.000,
    Until: 02:23,1.000,
    Until: 03:08,0.048,
    Until: 03:13,1.000,
    Until: 03:25,0.000,
    Until: 03:27,1.000,
    Until: 04:12,0.048,
    Until: 04:17,1.000,
    Until: 04:18,0.000,
    Until: 04:20,1.000,
    Until: 05:05,0.048,
    Until: 05:10,1.000,
    Until: 08:21,0.000,
    Until: 08:23,1.000,
    Until: 09:08,0.048,
    Until: 09:13,1.000,
    Until: 10:37,0.000,
    Until: 10:39,1.000,
    Until: 11:24,0.048,
    Until: 11:29,1.000,
    Until: 13:01,0.000,
    Until: 13:03,1.000,
    Until: 13:48,0.048,
    Until: 13:53,1.000,
    Until: 14:59,0.000,
    Until: 15:01,1.000,
    Until: 15:46,0.048,
    Until: 15:51,1.000,
    Until: 24:00,0.000,
    Through: 7/24,
    For: AllDays,
    Until: 02:53,0.000,
    Until: 02:55,1.000,
    Until: 03:40,0.048,
    Until: 03:45,1.000,
    Until: 03:46,0.000,
    Until: 03:48,1.000,
    Until: 04:33,0.048,
    Until: 04:38,1.000,
    Until: 07:01,0.000,
    Until: 07:03,1.000,
    Until: 07:48,0.048,
    Until: 07:53,1.000,
    Until: 11:55,0.000,
    Until: 11:57,1.000,
    Until: 12:42,0.048,
    Until: 12:47,1.000,
    Until: 13:30,0.000,
    Until: 13:32,1.000,
    Until: 14:17,0.048,
    Until: 14:22,1.000,
    Until: 16:24,0.000,
    Until: 16:26,1.000,
    Until: 17:11,0.048,
    Until: 17:16,1.000,
    Until: 24:00,0.000,
    Through: 7/25,
    For: AllDays,
    Until: 24:00,0.000,
    Through: 7/26,
    For: AllDays,
    Until: 24:00,0.000,
    Through: 7/27,
    For: AllDays,
    Until: 01:45,0.000,
    Until: 01:47,1.000,
    Until: 02:32,0.048,
    Until: 02:37,1.000,
    Until: 02:38,0.000,
    Until: 02:40,1.000,
    Until: 03:25,0.048,
    Until: 03:30,1.000,
    Until: 08:25,0.000,
    Until: 08:27,1.000,
    Until: 09:12,0.048,
    Until: 09:17,1.000,
    Until: 13:54,0.000,
    Until: 13:56,1.000,
    Until: 14:41,0.048,
    Until: 14:46,1.000,
    Until: 17:02,0.000,
    Until: 17:04,1.000,
    Until: 17:49,0.048,
    Until: 17:54,1.000,
    Until: 24:00,0.000,
    Through: 7/28,
    For: AllDays,
    Until: 02:45,0.000,
    Until: 02:47,1.000,
    Until: 03:32,0.048,
    Until: 03:37,1.000,
    Until: 03:38,0.000,
    Until: 03:40,1.000,
    Until: 04:25,0.048,
    Until: 04:30,1.000,
    Until: 05:35,0.000,
    Until: 05:37,1.000,
    Until: 06:22,0.048,
    Until: 06:27,1.000,
    Until: 08:23,0.000,
    Until: 08:25,1.000,
    Until: 09:10,0.048,
    Until: 09:15,1.000,
    Until: 11:21,0.000,
    Until: 11:23,1.000,
    Until: 12:08,0.048,
    Until: 12:13,1.000,
    Until: 12:40,0.000,
    Until: 12:42,1.000,
    Until: 13:27,0.048,
    Until: 13:32,1.000,
    Until: 24:00,0.000,
    Through: 7/29,
    For: AllDays,
    Until: 01:04,0.000,
    Until: 01:06,1.000,
    Until: 01:51,0.048,
    Until: 01:56,1.000,
    Until: 01:59,0.000,
    Until: 02:01,1.000,
    Until: 02:46,0.048,
    Until: 02:51,1.000,
    Until: 03:15,0.000,
    Until: 03:17,1.000,
    Until: 04:02,0.048,
    Until: 04:07,1.000,
    Until: 10:43,0.000,
    Until: 10:45,1.000,
    Until: 11:30,0.048,
    Until: 11:35,1.000,
    Until: 13:38,0.000,
    Until: 13:40,1.000,
    Until: 14:25,0.048,
    Until: 14:30,1.000,
    Until: 18:34,0.000,
    Until: 18:36,1.000,
    Until: 19:21,0.048,
    Until: 19:26,1.000,
    Until: 24:00,0.000,
    Through: 7/30,
    For: AllDays,
    Until: 01:29,0.000,
    Until: 01:31,1.000,
    Until: 02:16,0.048,
    Until: 02:21,1.000,
    Until: 02:22,0.000,
    Until: 02:24,1.000,
    Until: 03:09,0.048,
    Until: 03:14,1.000,
    Until: 03:55,0.000,
    Until: 03:57,1.000,
    Until: 04:42,0.048,
    Until: 04:47,1.000,
    Until: 05:26,0.000,
    Until: 05:28,1.000,
    Until: 06:13,0.048,
    Until: 06:18,1.000,
    Until: 12:39,0.000,
    Until: 12:41,1.000,
    Until: 13:26,0.048,
    Until: 13:31,1.000,
    Until: 13:47,0.000,
    Until: 13:49,1.000,
    Until: 14:34,0.048,
    Until: 14:39,1.000,
    Until: 15:38,0.000,
    Until: 15:40,1.000,
    Until: 16:25,0.048,
    Until: 16:30,1.000,
    Until: 24:00,0.000,
    Through: 7/31,
    For: AllDays,
    Until: 00:48,0.000,
    Until: 00:50,1.000,
    Until: 01:35,0.048,
    Until: 01:40,1.000,
    Until: 01:58,0.000,
    Until: 02:00,1.000,
    Until: 02:45,0.048,
    Until: 02:50,1.000,
    Until: 02:51,0.000,
    Until: 02:53,1.000,
    Until: 03:38,0.048,
    Until: 03:43,1.000,
    Until: 06:18,0.000,
    Until: 06:20,1.000,
    Until: 07:05,0.048,
    Until: 07:10,1.000,
    Until: 11:46,0.000,
    Until: 11:48,1.000,
    Until: 12:33,0.048,
    Until: 12:38,1.000,
    Until: 13:02,0.000,
    Until: 13:04,1.000,
    Until: 13:49,0.048,
    Until: 13:54,1.000,
    Until: 24:00,0.000,
    Through: 8/1,
    For: AllDays,
    Until: 24:00,0.000,
    Through: 8/2,
    For: AllDays,
    Until: 24:00,0.000,
    Through: 8/3,
    For: AllDays,
    Until: 04:18,0.000,
    Until: 04:20,1.000,
    Until: 05:05,0.048,
    Until: 05:10,1.000,
    Until: 12:21,0.000,
    Until: 12:23,1.000,
    Until: 13:08,0.048,
    Until: 13:13,1.000,
    Until: 15:35,0.000,
    Until: 15:37,1.000,
    Until: 16:22,0.048,
    Until: 16:27,1.000,
    Until: 24:00,0.000,
    Through: 8/4,
    For: AllDays,
    Until: 02:58,0.000,
    Until: 03:00,1.000,
    Until: 03:45,0.048,
    Until: 03:50,1.000,
    Until: 03:51,0.000,
    Until: 03:53,1.000,
    Until: 04:38,0.048,
    Until: 04:43,1.000,
    Until: 12:20,0.000,
    Until: 12:22,1.000,
    Until: 13:07,0.048,
    Until: 13:12,1.000,
    Until: 15:59,0.000,
    Until: 16:01,1.000,
    Until: 16:46,0.048,
    Until: 16:51,1.000,
    Until: 24:00,0.000,
    Through: 8/5,
    For: AllDays,
    Until: 02:02,0.000,
    Until: 02:04,1.000,
    Until: 02:49,0.048,
    Until: 02:54,1.000,
    Until: 03:01,0.000,
    Until: 03:03,1.000,
    Until: 03:48,0.048,
    Until: 03:53,1.000,
    Until: 05:49,0.000,
    Until: 05:51,1.000,
    Until: 06:36,0.048,
    Until: 06:41,1.000,
    Until: 11:28,0.000,
    Until: 11:30,1.000,
    Until: 12:15,0.048,
    Until: 12:20,1.000,
    Until: 13:00,0.000,
    Until: 13:02,1.000,
    Until: 13:47,0.048,
    Until: 13:52,1.000,
    Until: 24:00,0.000,
    Through: 8/6,
    For: AllDays,
    Until: 01:56,0.000,
    Until: 01:58,1.000,
    Until: 02:43,0.048,
    Until: 02:48,1.000,
    Until: 02:54,0.000,
    Until: 02:56,1.000,
    Until: 03:41,0.048,
    Until: 03:46,1.000,
    Until: 05:00,0.000,
    Until: 05:02,1.000,
    Until: 05:47,0.048,
    Until: 05:52,1.000,
    Until: 13:47,0.000,
    Until: 13:49,1.000,
    Until: 14:34,0.048,
    Until: 14:39,1.000,
    Until: 24:00,0.000,
    Through: 8/7,
    For: AllDays,
    Until: 02:20,0.000,
    Until: 02:22,1.000,
    Until: 03:07,0.048,
    Until: 03:12,1.000,
    Until: 03:13,0.000,
    Until: 03:15,1.000,
    Until: 04:00,0.048,
    Until: 04:05,1.000,
    Until: 09:23,0.000,
    Until: 09:25,1.000,
    Until: 10:10,0.048,
    Until: 10:15,1.000,
    Until: 11:41,0.000,
    Until: 11:43,1.000,
    Until: 12:28,0.048,
    Until: 12:33,1.000,
    Until: 16:15,0.000,
    Until: 16:17,1.000,
    Until: 17:02,0.048,
    Until: 17:07,1.000,
    Until: 24:00,0.000,
    Through: 8/8,
    For: AllDays,
    Until: 24:00,0.000,
    Through: 8/9,
    For: AllDays,
    Until: 24:00,0.000,
    Through: 8/10,
    For: AllDays,
    Until: 00:34,0.000,
    Until: 00:36,1.000,
    Until: 01:21,0.048,
    Until: 01:26,1.000,
    Until: 04:01,0.000,
    Until: 04:03,1.000,
    Until: 04:48,0.048,
    Until: 04:53,1.000,
    Until: 05:39,0.000,
    Until: 05:41,1.000,
    Until: 06:26,0.048,
    Until: 06:31,1.000,
    Until: 10:32,0.000,
    Until: 10:34,1.000,
    Until: 11:19,0.048,
    Until: 11:24,1.000,
    Until: 14:04,0.000,
    Until: 14:06,1.000,
    Until: 14:51,0.048,
    Until: 14:56,1.000,
    Until: 15:55,0.000,
    Until: 15:57,1.000,
    Until: 16:42,0.048,
    Until: 16:47,1.000,
    Until: 24:00,0.000,
    Through: 8/11,
    For: AllDays,
    Until: 02:47,0.000,
    Until: 02:49,1.000,
    Until: 03:34,0.048,
    Until: 03:39,1.000,
    Until: 12:22,0.000,
    Until: 12:24,1.000,
    Until: 13:09,0.048,
    Until: 13:14,1.000,
    Until: 15:16,0.000,
    Until: 15:18,1.000,
    Until: 16:03,0.048,
    Until: 16:08,1.000,
    Until: 24:00,0.000,
    Through: 8/12,
    For: AllDays,
    Until: 00:50,0.000,
    Until: 00:52,1.000,
    Until: 01:37,0.048,
    Until: 01:42,1.000,
    Until: 01:51,0.000,
    Until: 01:53,1.000,
    Until: 02:38,0.048,
    Until: 02:43,1.000,
    Until: 03:17,0.000,
    Until: 03:19,1.000,
    Until: 04:04,0.048,
    Until: 04:09,1.000,
    Until: 08:34,0.000,
    Until: 08:36,1.000,
    Until: 09:21,0.048,
    Until: 09:26,1.000,
    Until: 10:05,0.000,
    Until: 10:07,1.000,
    Until: 10:52,0.048,
    Until: 10:57,1.000,
    Until: 16:03,0.000,
    Until: 16:05,1.000,
    Until: 16:50,0.048,
    Until: 16:55,1.000,
    Until: 24:00,0.000,
    Through: 8/13,
    For: AllDays,
    Until: 02:31,0.000,
    Until: 02:33,1.000,
    Until: 03:18,0.048,
    Until: 03:23,1.000,
    Until: 06:06,0.000,
    Until: 06:08,1.000,
    Until: 06:53,0.048,
    Until: 06:58,1.000,
    Until: 10:20,0.000,
    Until: 10:22,1.000,
    Until: 11:07,0.048,
    Until: 11:12,1.000,
    Until: 24:00,0.000,
    Through: 8/14,
    For: AllDays,
    Until: 01:46,0.000,
    Until: 01:48,1.000,
    Until: 02:33,0.048,
    Until: 02:38,1.000,
    Until: 02:39,0.000,
    Until: 02:41,1.000,
    Until: 03:26,0.048,
    Until: 03:31,1.000,
    Until: 06:31,0.000,
    Until: 06:33,1.000,
    Until: 07:18,0.048,
    Until: 07:23,1.000,
    Until: 11:43,0.000,
    Until: 11:45,1.000,
    Until: 12:30,0.048,
    Until: 12:35,1.000,
    Until: 24:00,0.000,
    Through: 8/15,
    For: AllDays,
    Until: 24:00,0.000,
    Through: 8/16,
    For: AllDays,
    Until: 24:00,0.000,
    Through: 8/17,
    For: AllDays,
    Until: 01:13,0.000,
    Until: 01:15,1.000,
    Until: 02:00,0.048,
    Until: 02:05,1.000,
    Until: 03:10,0.000,
    Until: 03:12,1.000,
    Until: 03:57,0.048,
    Until: 04:02,1.000,
    Until: 05:04,0.000,
    Until: 05:06,1.000,
    Until: 05:51,0.048,
    Until: 05:56,1.000,
    Until: 13:00,0.000,
    Until: 13:02,1.000,
    Until: 13:47,0.048,
    Until: 13:52,1.000,
    Until: 15:17,0.000,
    Until: 15:19,1.000,
    Until: 16:04,0.048,
    Until: 16:09,1.000,
    Until: 24:00,0.000,
    Through: 8/18,
    For: AllDays,
    Until: 02:51,0.000,
    Until: 02:53,1.000,
    Until: 03:38,0.048,
    Until: 03:43,1.000,
    Until: 06:16,0.000,
    Until: 06:18,1.000,
    Until: 07:03,0.048,
    Until: 07:08,1.000,
    Until: 10:46,0.000,
    Until: 10:48,1.000,
    Until: 11:33,0.048,
    Until: 11:38,1.000,
    Until: 24:00,0.000,
    Through: 8/19,
    For: AllDays,
    Until: 02:44,0.000,
    Until: 02:46,1.000,
    Until: 03:31,0.048,
    Until: 03:36,1.000,
    Until: 03:54,0.000,
    Until: 03:56,1.000,
    Until: 04:41,0.048,
    Until: 04:46,1.000,
    Until: 06:48,0.000,
    Until: 06:50,1.000,
    Until: 07:35,0.048,
    Until: 07:40,1.000,
    Until: 12:16,0.000,
    Until: 12:18,1.000,
    Until: 13:03,0.048,
    Until: 13:08,1.000,
    Until: 24:00,0.000,
    Through: 8/20,
    For: AllDays,
    Until: 00:51,0.000,
    Until: 00:53,1.000,
    Until: 01:38,0.048,
    Until: 01:43,1.000,
    Until: 01:44,0.000,
    Until: 01:46,1.000,
    Until: 02:31,0.048,
    Until: 02:36,1.000,
    Until: 04:05,0.000,
    Until: 04:07,1.000,
    Until: 04:52,0.048,
    Until: 04:57,1.000,
    Until: 06:19,0.000,
    Until: 06:21,1.000,
    Until: 07:06,0.048,
    Until: 07:11,1.000,
    Until: 10:27,0.000,
    Until: 10:29,1.000,
    Until: 11:14,0.048,
    Until: 11:19,1.000,
    Until: 13:32,0.000,
    Until: 13:34,1.000,
    Until: 14:19,0.048,
    Until: 14:24,1.000,
    Until: 24:00,0.000,
    Through: 8/21,
    For: AllDays,
    Until: 03:15,0.000,
    Until: 03:17,1.000,
    Until: 04:02,0.048,
    Until: 04:07,1.000,
    Until: 06:47,0.000,
    Until: 06:49,1.000,
    Until: 07:34,0.048,
    Until: 07:39,1.000,
    Until: 12:40,0.000,
    Until: 12:42,1.000,
    Until: 13:27,0.048,
    Until: 13:32,1.000,
    Until: 24:00,0.000,
    Through: 8/22,
    For: AllDays,
    Until: 24:00,0.000,
    Through: 8/23,
    For: AllDays,
    Until: 24:00,0.000,
    Through: 8/24,
    For: AllDays,
    Until: 01:32,0.000,
    Until: 01:34,1.000,
    Until: 02:19,0.048,
    Until: 02:24,1.000,
    Until: 02:30,0.000,
    Until: 02:32,1.000,
    Until: 03:17,0.048,
    Until: 03:22,1.000,
    Until: 07:35,0.000,
    Until: 07:37,1.000,
    Until: 08:22,0.048,
    Until: 08:27,1.000,
    Until: 12:25,0.000,
    Until: 12:27,1.000,
    Until: 13:12,0.048,
    Until: 13:17,1.000,
    Until: 24:00,0.000,
    Through: 8/25,
    For: AllDays,
    Until: 02:57,0.000,
    Until: 02:59,1.000,
    Until: 03:44,0.048,
    Until: 03:49,1.000,
    Until: 06:36,0.000,
    Until: 06:38,1.000,
    Until: 07:23,0.048,
    Until: 07:28,1.000,
    Until: 13:25,0.000,
    Until: 13:27,1.000,
    Until: 14:12,0.048,
    Until: 14:17,1.000,
    Until: 17:15,0.000,
    Until: 17:17,1.000,
    Until: 18:02,0.048,
    Until: 18:07,1.000,
    Until: 24:00,0.000,
    Through: 8/26,
    For: AllDays,
    Until: 02:51,0.000,
    Until: 02:53,1.000,
    Until: 03:38,0.048,
    Until: 03:43,1.000,
    Until: 12:13,0.000,
    Until: 12:15,1.000,
    Until: 13:00,0.048,
    Until: 13:05,1.000,
    Until: 15:40,0.000,
    Until: 15:42,1.000,
    Until: 16:27,0.048,
    Until: 16:32,1.000,
    Until: 24:00,0.000,
    Through: 8/27,
    For: AllDays,
    Until: 01:05,0.000,
    Until: 01:07,1.000,
    Until: 01:52,0.048,
    Until: 01:57,1.000,
    Until: 02:09,0.000,
    Until: 02:11,1.000,
    Until: 02:56,0.048,
    Until: 03:01,1.000,
    Until: 04:09,0.000,
    Until: 04:11,1.000,
    Until: 04:56,0.048,
    Until: 05:01,1.000,
    Until: 13:08,0.000,
    Until: 13:10,1.000,
    Until: 13:55,0.048,
    Until: 14:00,1.000,
    Until: 24:00,0.000,
    Through: 8/28,
    For: AllDays,
    Until: 03:51,0.000,
    Until: 03:53,1.000,
    Until: 04:38,0.048,
    Until: 04:43,1.000,
    Until: 07:31,0.000,
    Until: 07:33,1.000,
    Until: 08:18,0.048,
    Until: 08:23,1.000,
    Until: 13:12,0.000,
    Until: 13:14,1.000,
    Until: 13:59,0.048,
    Until: 14:04,1.000,
    Until: 24:00,0.000,
    Through: 8/29,
    For: AllDays,
    Until: 24:00,0.000,
    Through: 8/30,
    For: AllDays,
    Until: 24:00,0.000,
    Through: 8/31,
    For: AllDays,
    Until: 03:38,0.000,
    Until: 03:40,1.000,
    Until: 04:25,0.048,
    Until: 04:30,1.000,
    Until: 12:02,0.000,
    Until: 12:04,1.000,
    Until: 12:49,0.048,
    Until: 12:54,1.000,
    Until: 15:26,0.000,
    Until: 15:28,1.000,
    Until: 16:13,0.048,
    Until: 16:18,1.000,
    Until: 24:00,0.000,
    Through: 9/1,
    For: AllDays,
    Until: 01:17,0.000,
    Until: 01:19,1.000,
    Until: 02:04,0.048,
    Until: 02:09,1.000,
    Until: 02:10,0.000,
    Until: 02:12,1.000,
    Until: 02:57,0.048,
    Until: 03:02,1.000,
    Until: 03:40,0.000,
    Until: 03:42,1.000,
    Until: 04:27,0.048,
    Until: 04:32,1.000,
    Until: 06:10,0.000,
    Until: 06:12,1.000,
    Until: 06:57,0.048,
    Until: 07:02,1.000,
    Until: 15:42,0.000,
    Until: 15:44,1.000,
    Until: 16:29,0.048,
    Until: 16:34,1.000,
    Until: 24:00,0.000,
    Through: 9/2,
    For: AllDays,
    Until: 03:00,0.000,
    Until: 03:02,1.000,
    Until: 03:47,0.048,
    Until: 03:52,1.000,
    Until: 07:57,0.000,
    Until: 07:59,1.000,
    Until: 08:44,0.048,
    Until: 08:49,1.000,
    Until: 13:04,0.000,
    Until: 13:06,1.000,
    Until: 13:51,0.048,
    Until: 13:56,1.000,
    Until: 14:44,0.000,
    Until: 14:46,1.000,
    Until: 15:31,0.048,
    Until: 15:36,1.000,
    Until: 24:00,0.000,
    Through: 9/3,
    For: AllDays,
    Until: 02:21,0.000,
    Until: 02:23,1.000,
    Until: 03:08,0.048,
    Until: 03:13,1.000,
    Until: 03:14,0.000,
    Until: 03:16,1.000,
    Until: 04:01,0.048,
    Until: 04:06,1.000,
    Until: 11:00,0.000,
    Until: 11:02,1.000,
    Until: 11:47,0.048,
    Until: 11:52,1.000,
    Until: 12:18,0.000,
    Until: 12:20,1.000,
    Until: 13:05,0.048,
    Until: 13:10,1.000,
    Until: 24:00,0.000,
    Through: 9/4,
    For: AllDays,
    Until: 03:00,0.000,
    Until: 03:02,1.000,
    Until: 03:47,0.048,
    Until: 03:52,1.000,
    Until: 04:11,0.000,
    Until: 04:13,1.000,
    Until: 04:58,0.048,
    Until: 05:03,1.000,
    Until: 05:22,0.000,
    Until: 05:24,1.000,
    Until: 06:09,0.048,
    Until: 06:14,1.000,
    Until: 07:15,0.000,
    Until: 07:17,1.000,
    Until: 08:02,0.048,
    Until: 08:07,1.000,
    Until: 12:57,0.000,
    Until: 12:59,1.000,
    Until: 13:44,0.048,
    Until: 13:49,1.000,
    Until: 24:00,0.000,
    Through: 9/5,
    For: AllDays,
    Until: 24:00,0.000,
    Through: 9/6,
    For: AllDays,
    Until: 24:00,0.000,
    Through: 9/7,
    For: AllDays,
    Until: 00:39,0.000,
    Until: 00:41,1.000,
    Until: 01:26,0.048,
    Until: 01:31,1.000,
    Until: 02:14,0.000,
    Until: 02:16,1.000,
    Until: 03:01,0.048,
    Until: 03:06,1.000,
    Until: 04:36,0.000,
    Until: 04:38,1.000,
    Until: 05:23,0.048,
    Until: 05:28,1.000,
    Until: 12:47,0.000,
    Until: 12:49,1.000,
    Until: 13:34,0.048,
    Until: 13:39,1.000,
    Until: 15:34,0.000,
    Until: 15:36,1.000,
    Until: 16:21,0.048,
    Until: 16:26,1.000,
    Until: 24:00,0.000,
    Through: 9/8,
    For: AllDays,
    Until: 00:10,0.000,
    Until: 00:12,1.000,
    Until: 00:57,0.048,
    Until: 01:02,1.000,
    Until: 01:30,0.000,
    Until: 01:32,1.000,
    Until: 02:17,0.048,
    Until: 02:22,1.000,
    Until: 02:23,0.000,
    Until: 02:25,1.000,
    Until: 03:10,0.048,
    Until: 03:15,1.000,
    Until: 06:10,0.000,
    Until: 06:12,1.000,
    Until: 06:57,0.048,
    Until: 07:02,1.000,
    Until: 07:12,0.000,
    Until: 07:14,1.000,
    Until: 07:59,0.048,
    Until: 08:04,1.000,
    Until: 13:01,0.000,
    Until: 13:03,1.000,
    Until: 13:48,0.048,
    Until: 13:53,1.000,
    Until: 24:00,0.000,
    Through: 9/9,
    For: AllDays,
    Until: 00:59,0.000,
    Until: 01:01,1.000,
    Until: 01:46,0.048,
    Until: 01:51,1.000,
    Until: 02:25,0.000,
    Until: 02:27,1.000,
    Until: 03:12,0.048,
    Until: 03:17,1.000,
    Until: 04:09,0.000,
    Until: 04:11,1.000,
    Until: 04:56,0.048,
    Until: 05:01,1.000,
    Until: 05:22,0.000,
    Until: 05:24,1.000,
    Until: 06:09,0.048,
    Until: 06:14,1.000,
    Until: 11:15,0.000,
    Until: 11:17,1.000,
    Until: 12:02,0.048,
    Until: 12:07,1.000,
    Until: 24:00,0.000,
    Through: 9/10,
    For: AllDays,
    Until: 01:48,0.000,
    Until: 01:50,1.000,
    Until: 02:35,0.048,
    Until: 02:40,1.000,
    Until: 03:26,0.000,
    Until: 03:28,1.000,
    Until: 04:13,0.048,
    Until: 04:18,1.000,
    Until: 04:19,0.000,
    Until: 04:21,1.000,
    Until: 05:06,0.048,
    Until: 05:11,1.000,
    Until: 09:03,0.000,
    Until: 09:05,1.000,
    Until: 09:50,0.048,
    Until: 09:55,1.000,
    Until: 12:21,0.000,
    Until: 12:23,1.000,
    Until: 13:08,0.048,
    Until: 13:13,1.000,
    Until: 16:15,0.000,
    Until: 16:17,1.000,
    Until: 17:02,0.048,
    Until: 17:07,1.000,
    Until: 24:00,0.000,
    Through: 9/11,
    For: AllDays,
    Until: 00:57,0.000,
    Until: 00:59,1.000,
    Until: 01:44,0.048,
    Until: 01:49,1.000,
    Until: 02:20,0.000,
    Until: 02:22,1.000,
    Until: 03:07,0.048,
    Until: 03:12,1.000,
    Until: 03:13,0.000,
    Until: 03:15,1.000,
    Until: 04:00,0.048,
    Until: 04:05,1.000,
    Until: 06:19,0.000,
    Until: 06:21,1.000,
    Until: 07:06,0.048,
    Until: 07:11,1.000,
    Until: 08:25,0.000,
    Until: 08:27,1.000,
    Until: 09:12,0.048,
    Until: 09:17,1.000,
    Until: 12:59,0.000,
    Until: 13:01,1.000,
    Until: 13:46,0.048,
    Until: 13:51,1.000,
    Until: 16:16,0.000,
    Until: 16:18,1.000,
    Until: 17:03,0.048,
    Until: 17:08,1.000,
    Until: 24:00,0.000,
    Through: 9/12,
    For: AllDays,
    Until: 24:00,0.000,
    Through: 9/13,
    For: AllDays,
    Until: 24:00,0.000,
    Through: 9/14,
    For: AllDays,
    Until: 03:31,0.000,
    Until: 03:33,1.000,
    Until: 04:18,0.048,
    Until: 04:23,1.000,
    Until: 04:33,0.000,
    Until: 04:35,1.000,
    Until: 05:20,0.048,
    Until: 05:25,1.000,
    Until: 11:49,0.000,
    Until: 11:51,1.000,
    Until: 12:36,0.048,
    Until: 12:41,1.000,
    Until: 24:00,0.000,
    Through: 9/15,
    For: AllDays,
    Until: 01:42,0.000,
    Until: 01:44,1.000,
    Until: 02:29,0.048,
    Until: 02:34,1.000,
    Until: 02:47,0.000,
    Until: 02:49,1.000,
    Until: 03:34,0.048,
    Until: 03:39,1.000,
    Until: 07:43,0.000,
    Until: 07:45,1.000,
    Until: 08:30,0.048,
    Until: 08:35,1.000,
    Until: 12:04,0.000,
    Until: 12:06,1.000,
    Until: 12:51,0.048,
    Until: 12:56,1.000,
    Until: 12:57,0.000,
    Until: 12:59,1.000,
    Until: 13:44,0.048,
    Until: 13:49,1.000,
    Until: 24:00,0.000,
    Through: 9/16,
    For: AllDays,
    Until: 01:51,0.000,
    Until: 01:53,1.000,
    Until: 02:38,0.048,
    Until: 02:43,1.000,
    Until: 03:19,0.000,
    Until: 03:21,1.000,
    Until: 04:06,0.048,
    Until: 04:11,1.000,
    Until: 04:12,0.000,
    Until: 04:14,1.000,
    Until: 04:59,0.048,
    Until: 05:04,1.000,
    Until: 06:28,0.000,
    Until: 06:30,1.000,
    Until: 07:15,0.048,
    Until: 07:20,1.000,
    Until: 07:54,0.000,
    Until: 07:56,1.000,
    Until: 08:41,0.048,
    Until: 08:46,1.000,
    Until: 24:00,0.000,
    Through: 9/17,
    For: AllDays,
    Until: 00:34,0.000,
    Until: 00:36,1.000,
    Until: 01:21,0.048,
    Until: 01:26,1.000,
    Until: 02:13,0.000,
    Until: 02:15,1.000,
    Until: 03:00,0.048,
    Until: 03:05,1.000,
    Until: 03:48,0.000,
    Until: 03:50,1.000,
    Until: 04:35,0.048,
    Until: 04:40,1.000,
    Until: 12:03,0.000,
    Until: 12:05,1.000,
    Until: 12:50,0.048,
    Until: 12:55,1.000,
    Until: 24:00,0.000,
    Through: 9/18,
    For: AllDays,
    Until: 00:20,0.000,
    Until: 00:22,1.000,
    Until: 01:07,0.048,
    Until: 01:12,1.000,
    Until: 01:15,0.000,
    Until: 01:17,1.000,
    Until: 02:02,0.048,
    Until: 02:07,1.000,
    Until: 02:08,0.000,
    Until: 02:10,1.000,
    Until: 02:55,0.048,
    Until: 03:00,1.000,
    Until: 04:31,0.000,
    Until: 04:33,1.000,
    Until: 05:18,0.048,
    Until: 05:23,1.000,
    Until: 11:41,0.000,
    Until: 11:43,1.000,
    Until: 12:28,0.048,
    Until: 12:33,1.000,
    Until: 17:52,0.000,
    Until: 17:54,1.000,
    Until: 18:39,0.048,
    Until: 18:44,1.000,
    Until: 24:00,0.000,
    Through: 9/19,
    For: AllDays,
    Until: 24:00,0.000,
    Through: 9/20,
    For: AllDays,
    Until: 24:00,0.000,
    Through: 9/21,
    For: AllDays,
    Until: 01:54,0.000,
    Until: 01:56,1.000,
    Until: 02:41,0.048,
    Until: 02:46,1.000,
    Until: 02:47,0.000,
    Until: 02:49,1.000,
    Until: 03:34,0.048,
    Until: 03:39,1.000,
    Until: 03:54,0.000,
    Until: 03:56,1.000,
    Until: 04:41,0.048,
    Until: 04:46,1.000,
    Until: 07:14,0.000,
    Until: 07:16,1.000,
    Until: 08:01,0.048,
    Until: 08:06,1.000,
    Until: 12:49,0.000,
    Until: 12:51,1.000,
    Until: 13:36,0.048,
    Until: 13:41,1.000,
    Until: 15:49,0.000,
    Until: 15:51,1.000,
    Until: 16:36,0.048,
    Until: 16:41,1.000,
    Until: 24:00,0.000,
    Through: 9/22,
    For: AllDays,
    Until: 01:33,0.000,
    Until: 01:35,1.000,
    Until: 02:20,0.048,
    Until: 02:25,1.000,
    Until: 02:33,0.000,
    Until: 02:35,1.000,
    Until: 03:20,0.048,
    Until: 03:25,1.000,
    Until: 03:28,0.000,
    Until: 03:30,1.000,
    Until: 04:15,0.048,
    Until: 04:20,1.000,
    Until: 08:28,0.000,
    Until: 08:30,1.000,
    Until: 09:15,0.048,
    Until: 09:20,1.000,
    Until: 13:07,0.000,
    Until: 13:09,1.000,
    Until: 13:54,0.048,
    Until: 13:59,1.000,
    Until: 24:00,0.000,
    Through: 9/23,
    For: AllDays,
    Until: 01:57,0.000,
    Until: 01:59,1.000,
    Until: 02:44,0.048,
    Until: 02:49,1.000,
    Until: 03:02,0.000,
    Until: 03:04,1.000,
    Until: 03:49,0.048,
    Until: 03:54,1.000,
    Until: 09:20,0.000,
    Until: 09:22,1.000,
    Until: 10:07,0.048,
    Until: 10:12,1.000,
    Until: 13:08,0.000,
    Until: 13:10,1.000,
    Until: 13:55,0.048,
    Until: 14:00,1.000,
    Until: 24:00,0.000,
    Through: 9/24,
    For: AllDays,
    Until: 01:08,0.000,
    Until: 01:10,1.000,
    Until: 01:55,0.048,
    Until: 02:00,1.000,
    Until: 02:05,0.000,
    Until: 02:07,1.000,
    Until: 02:52,0.048,
    Until: 02:57,1.000,
    Until: 02:59,0.000,
    Until: 03:01,1.000,
    Until: 03:46,0.048,
    Until: 03:51,1.000,
    Until: 06:23,0.000,
    Until: 06:25,1.000,
    Until: 07:10,0.048,
    Until: 07:15,1.000,
    Until: 12:17,0.000,
    Until: 12:19,1.000,
    Until: 13:04,0.048,
    Until: 13:09,1.000,
    Until: 13:42,0.000,
    Until: 13:44,1.000,
    Until: 14:29,0.048,
    Until: 14:34,1.000,
    Until: 24:00,0.000,
    Through: 9/25,
    For: AllDays,
    Until: 02:57,0.000,
    Until: 02:59,1.000,
    Until: 03:44,0.048,
    Until: 03:49,1.000,
    Until: 03:50,0.000,
    Until: 03:52,1.000,
    Until: 04:37,0.048,
    Until: 04:42,1.000,
    Until: 07:20,0.000,
    Until: 07:22,1.000,
    Until: 08:07,0.048,
    Until: 08:12,1.000,
    Until: 10:45,0.000,
    Until: 10:47,1.000,
    Until: 11:32,0.048,
    Until: 11:37,1.000,
    Until: 15:46,0.000,
    Until: 15:48,1.000,
    Until: 16:33,0.048,
    Until: 16:38,1.000,
    Until: 24:00,0.000,
    Through: 9/26,
    For: AllDays,
    Until: 24:00,0.000,
    Through: 9/27,
    For: AllDays,
    Until: 24:00,0.000,
    Through: 9/28,
    For: AllDays,
    Until: 00:32,0.000,
    Until: 00:34,1.000,
    Until: 01:19,0.048,
    Until: 01:24,1.000,
    Until: 01:50,0.000,
    Until: 01:52,1.000,
    Until: 02:37,0.048,
    Until: 02:42,1.000,
    Until: 02:44,0.000,
    Until: 02:46,1.000,
    Until: 03:31,0.048,
    Until: 03:36,1.000,
    Until: 03:49,0.000,
    Until: 03:51,1.000,
    Until: 04:36,0.048,
    Until: 04:41,1.000,
    Until: 07:40,0.000,
    Until: 07:42,1.000,
    Until: 08:27,0.048,
    Until: 08:32,1.000,
    Until: 10:21,0.000,
    Until: 10:23,1.000,
    Until: 11:08,0.048,
    Until: 11:13,1.000,
    Until: 12:43,0.000,
    Until: 12:45,1.000,
    Until: 13:30,0.048,
    Until: 13:35,1.000,
    Until: 24:00,0.000,
    Through: 9/29,
    For: AllDays,
    Until: 01:36,0.000,
    Until: 01:38,1.000,
    Until: 02:23,0.048,
    Until: 02:28,1.000,
    Until: 02:29,0.000,
    Until: 02:31,1.000,
    Until: 03:16,0.048,
    Until: 03:21,1.000,
    Until: 03:34,0.000,
    Until: 03:36,1.000,
    Until: 04:21,0.048,
    Until: 04:26,1.000,
    Until: 08:26,0.000,
    Until: 08:28,1.000,
    Until: 09:13,0.048,
    Until: 09:18,1.000,
    Until: 11:24,0.000,
    Until: 11:26,1.000,
    Until: 12:11,0.048,
    Until: 12:16,1.000,
    Until: 12:38,0.000,
    Until: 12:40,1.000,
    Until: 13:25,0.048,
    Until: 13:30,1.000,
    Until: 24:00,0.000,
    Through: 9/30,
    For: AllDays,
    Until: 01:33,0.000,
    Until: 01:35,1.000,
    Until: 02:20,0.048,
    Until: 02:25,1.000,
    Until: 02:26,0.000,
    Until: 02:28,1.000,
    Until: 03:13,0.048,
    Until: 03:18,1.000,
    Until: 03:25,0.000,
    Until: 03:27,1.000,
    Until: 04:12,0.048,
    Until: 04:17,1.000,
    Until: 07:08,0.000,
    Until: 07:10,1.000,
    Until: 07:55,0.048,
    Until: 08:00,1.000,
    Until: 11:34,0.000,
    Until: 11:36,1.000,
    Until: 12:21,0.048,
    Until: 12:26,1.000,
    Until: 24:00,0.000,
    Through: 10/1,
    For: AllDays,
    Until: 01:10,0.000,
    Until: 01:12,1.000,
    Until: 01:57,0.048,
    Until: 02:02,1.000,
    Until: 02:17,0.000,
    Until: 02:19,1.000,
    Until: 03:04,0.048,
    Until: 03:09,1.000,
    Until: 03:10,0.000,
    Until: 03:12,1.000,
    Until: 03:57,0.048,
    Until: 04:02,1.000,
    Until: 10:03,0.000,
    Until: 10:05,1.000,
    Until: 10:50,0.048,
    Until: 10:55,1.000,
    Until: 12:01,0.000,
    Until: 12:03,1.000,
    Until: 12:48,0.048,
    Until: 12:53,1.000,
    Until: 15:33,0.000,
    Until: 15:35,1.000,
    Until: 16:20,0.048,
    Until: 16:25,1.000,
    Until: 24:00,0.000,
    Through: 10/2,
    For: AllDays,
    Until: 00:04,0.000,
    Until: 00:06,1.000,
    Until: 00:51,0.048,
    Until: 00:56,1.000,
    Until: 01:01,0.000,
    Until: 01:03,1.000,
    Until: 01:48,0.048,
    Until: 01:53,1.000,
    Until: 01:54,0.000,
    Until: 01:56,1.000,
    Until: 02:41,0.048,
    Until: 02:46,1.000,
    Until: 02:47,0.000,
    Until: 02:49,1.000,
    Until: 03:34,0.048,
    Until: 03:39,1.000,
    Until: 06:24,0.000,
    Until: 06:26,1.000,
    Until: 07:11,0.048,
    Until: 07:16,1.000,
    Until: 07:30,0.000,
    Until: 07:32,1.000,
    Until: 08:17,0.048,
    Until: 08:22,1.000,
    Until: 10:05,0.000,
    Until: 10:07,1.000,
    Until: 10:52,0.048,
    Until: 10:57,1.000,
    Until: 13:44,0.000,
    Until: 13:46,1.000,
    Until: 14:31,0.048,
    Until: 14:36,1.000,
    Until: 15:41,0.000,
    Until: 15:43,1.000,
    Until: 16:28,0.048,
    Until: 16:33,1.000,
    Until: 24:00,0.000,
    Through: 10/3,
    For: AllDays,
    Until: 24:00,0.000,
    Through: 10/4,
    For: AllDays,
    Until: 24:00,0.000,
    Through: 10/5,
    For: AllDays,
    Until: 02:55,0.000,
    Until: 02:57,1.000,
    Until: 03:42,0.048,
    Until: 03:47,1.000,
    Until: 04:22,0.000,
    Until: 04:24,1.000,
    Until: 05:09,0.048,
    Until: 05:14,1.000,
    Until: 07:06,0.000,
    Until: 07:08,1.000,
    Until: 07:53,0.048,
    Until: 07:58,1.000,
    Until: 10:54,0.000,
    Until: 10:56,1.000,
    Until: 11:41,0.048,
    Until: 11:46,1.000,
    Until: 12:37,0.000,
    Until: 12:39,1.000,
    Until: 13:24,0.048,
    Until: 13:29,1.000,
    Until: 18:42,0.000,
    Until: 18:44,1.000,
    Until: 19:29,0.048,
    Until: 19:34,1.000,
    Until: 24:00,0.000,
    Through: 10/6,
    For: AllDays,
    Until: 02:46,0.000,
    Until: 02:48,1.000,
    Until: 03:33,0.048,
    Until: 03:38,1.000,
    Until: 04:02,0.000,
    Until: 04:04,1.000,
    Until: 04:49,0.048,
    Until: 04:54,1.000,
    Until: 06:07,0.000,
    Until: 06:09,1.000,
    Until: 06:54,0.048,
    Until: 06:59,1.000,
    Until: 09:51,0.000,
    Until: 09:53,1.000,
    Until: 10:38,0.048,
    Until: 10:43,1.000,
    Until: 12:49,0.000,
    Until: 12:51,1.000,
    Until: 13:36,0.048,
    Until: 13:41,1.000,
    Until: 14:18,0.000,
    Until: 14:20,1.000,
    Until: 15:05,0.048,
    Until: 15:10,1.000,
    Until: 24:00,0.000,
    Through: 10/7,
    For: AllDays,
    Until: 00:48,0.000,
    Until: 00:50,1.000,
    Until: 01:35,0.048,
    Until: 01:40,1.000,
    Until: 02:50,0.000,
    Until: 02:52,1.000,
    Until: 03:37,0.048,
    Until: 03:42,1.000,
    Until: 03:43,0.000,
    Until: 03:45,1.000,
    Until: 04:30,0.048,
    Until: 04:35,1.000,
    Until: 11:18,0.000,
    Until: 11:20,1.000,
    Until: 12:05,0.048,
    Until: 12:10,1.000,
    Until: 14:43,0.000,
    Until: 14:45,1.000,
    Until: 15:30,0.048,
    Until: 15:35,1.000,
    Until: 24:00,0.000,
    Through: 10/8,
    For: AllDays,
    Until: 01:23,0.000,
    Until: 01:25,1.000,
    Until: 02:10,0.048,
    Until: 02:15,1.000,
    Until: 02:16,0.000,
    Until: 02:18,1.000,
    Until: 03:03,0.048,
    Until: 03:08,1.000,
    Until: 03:31,0.000,
    Until: 03:33,1.000,
    Until: 04:18,0.048,
    Until: 04:23,1.000,
    Until: 09:02,0.000,
    Until: 09:04,1.000,
    Until: 09:49,0.048,
    Until: 09:54,1.000,
    Until: 11:38,0.000,
    Until: 11:40,1.000,
    Until: 12:25,0.048,
    Until: 12:30,1.000,
    Until: 13:35,0.000,
    Until: 13:37,1.000,
    Until: 14:22,0.048,
    Until: 14:27,1.000,
    Until: 15:44,0.000,
    Until: 15:46,1.000,
    Until: 16:31,0.048,
    Until: 16:36,1.000,
    Until: 24:00,0.000,
    Through: 10/9,
    For: AllDays,
    Until: 00:20,0.000,
    Until: 00:22,1.000,
    Until: 01:07,0.048,
    Until: 01:12,1.000,
    Until: 01:45,0.000,
    Until: 01:47,1.000,
    Until: 02:32,0.048,
    Until: 02:37,1.000,
    Until: 03:31,0.000,
    Until: 03:33,1.000,
    Until: 04:18,0.048,
    Until: 04:23,1.000,
    Until: 06:46,0.000,
    Until: 06:48,1.000,
    Until: 07:33,0.048,
    Until: 07:38,1.000,
    Until: 12:04,0.000,
    Until: 12:06,1.000,
    Until: 12:51,0.048,
    Until: 12:56,1.000,
    Until: 15:36,0.000,
    Until: 15:38,1.000,
    Until: 16:23,0.048,
    Until: 16:28,1.000,
    Until: 24:00,0.000,
    Through: 10/10,
    For: AllDays,
    Until: 24:00,0.000,
    Through: 10/11,
    For: AllDays,
    Until: 24:00,0.000,
    Through: 10/12,
    For: AllDays,
    Until: 03:02,0.000,
    Until: 03:04,1.000,
    Until: 03:49,0.048,
    Until: 03:54,1.000,
    Until: 03:55,0.000,
    Until: 03:57,1.000,
    Until: 04:42,0.048,
    Until: 04:47,1.000,
    Until: 05:51,0.000,
    Until: 05:53,1.000,
    Until: 06:38,0.048,
    Until: 06:43,1.000,
    Until: 10:24,0.000,
    Until: 10:26,1.000,
    Until: 11:11,0.048,
    Until: 11:16,1.000,
    Until: 15:45,0.000,
    Until: 15:47,1.000,
    Until: 16:32,0.048,
    Until: 16:37,1.000,
    Until: 24:00,0.000,
    Through: 10/13,
    For: AllDays,
    Until: 02:43,0.000,
    Until: 02:45,1.000,
    Until: 03:30,0.048,
    Until: 03:35,1.000,
    Until: 03:36,0.000,
    Until: 03:38,1.000,
    Until: 04:23,0.048,
    Until: 04:28,1.000,
    Until: 05:50,0.000,
    Until: 05:52,1.000,
    Until: 06:37,0.048,
    Until: 06:42,1.000,
    Until: 09:12,0.000,
    Until: 09:14,1.000,
    Until: 09:59,0.048,
    Until: 10:04,1.000,
    Until: 12:27,0.000,
    Until: 12:29,1.000,
    Until: 13:14,0.048,
    Until: 13:19,1.000,
    Until: 24:00,0.000,
    Through: 10/14,
    For: AllDays,
    Until: 01:06,0.000,
    Until: 01:08,1.000,
    Until: 01:53,0.048,
    Until: 01:58,1.000,
    Until: 03:11,0.000,
    Until: 03:13,1.000,
    Until: 03:58,0.048,
    Until: 04:03,1.000,
    Until: 04:04,0.000,
    Until: 04:06,1.000,
    Until: 04:51,0.048,
    Until: 04:56,1.000,
    Until: 06:37,0.000,
    Until: 06:39,1.000,
    Until: 07:24,0.048,
    Until: 07:29,1.000,
    Until: 10:36,0.000,
    Until: 10:38,1.000,
    Until: 11:23,0.048,
    Until: 11:28,1.000,
    Until: 11:35,0.000,
    Until: 11:37,1.000,
    Until: 12:22,0.048,
    Until: 12:27,1.000,
    Until: 17:44,0.000,
    Until: 17:46,1.000,
    Until: 18:31,0.048,
    Until: 18:36,1.000,
    Until: 24:00,0.000,
    Through: 10/15,
    For: AllDays,
    Until: 01:47,0.000,
    Until: 01:49,1.000,
    Until: 02:34,0.048,
    Until: 02:39,1.000,
    Until: 02:47,0.000,
    Until: 02:49,1.000,
    Until: 03:34,0.048,
    Until: 03:39,1.000,
    Until: 03:45,0.000,
    Until: 03:47,1.000,
    Until: 04:32,0.048,
    Until: 04:37,1.000,
    Until: 06:32,0.000,
    Until: 06:34,1.000,
    Until: 07:19,0.048,
    Until: 07:24,1.000,
    Until: 08:18,0.000,
    Until: 08:20,1.000,
    Until: 09:05,0.048,
    Until: 09:10,1.000,
    Until: 09:48,0.000,
    Until: 09:50,1.000,
    Until: 10:35,0.048,
    Until: 10:40,1.000,
    Until: 14:04,0.000,
    Until: 14:06,1.000,
    Until: 14:51,0.048,
    Until: 14:56,1.000,
    Until: 15:51,0.000,
    Until: 15:53,1.000,
    Until: 16:38,0.048,
    Until: 16:43,1.000,
    Until: 24:00,0.000,
    Through: 10/16,
    For: AllDays,
    Until: 02:23,0.000,
    Until: 02:25,1.000,
    Until: 03:10,0.048,
    Until: 03:15,1.000,
    Until: 03:21,0.000,
    Until: 03:23,1.000,
    Until: 04:08,0.048,
    Until: 04:13,1.000,
    Until: 04:22,0.000,
    Until: 04:24,1.000,
    Until: 05:09,0.048,
    Until: 05:14,1.000,
    Until: 08:49,0.000,
    Until: 08:51,1.000,
    Until: 09:36,0.048,
    Until: 09:41,1.000,
    Until: 12:37,0.000,
    Until: 12:39,1.000,
    Until: 13:24,0.048,
    Until: 13:29,1.000,
    Until: 17:19,0.000,
    Until: 17:21,1.000,
    Until: 18:06,0.048,
    Until: 18:11,1.000,
    Until: 24:00,0.000,
    Through: 10/17,
    For: AllDays,
    Until: 24:00,0.000,
    Through: 10/18,
    For: AllDays,
    Until: 24:00,0.000,
    Through: 10/19,
    For: AllDays,
    Until: 01:35,0.000,
    Until: 01:37,1.000,
    Until: 02:22,0.048,
    Until: 02:27,1.000,
    Until: 02:28,0.000,
    Until: 02:30,1.000,
    Until: 03:15,0.048,
    Until: 03:20,1.000,
    Until: 07:11,0.000,
    Until: 07:13,1.000,
    Until: 07:58,0.048,
    Until: 08:03,1.000,
    Until: 11:52,0.000,
    Until: 11:54,1.000,
    Until: 12:39,0.048,
    Until: 12:44,1.000,
    Until: 14:48,0.000,
    Until: 14:50,1.000,
    Until: 15:35,0.048,
    Until: 15:40,1.000,
    Until: 24:00,0.000,
    Through: 10/20,
    For: AllDays,
    Until: 02:54,0.000,
    Until: 02:56,1.000,
    Until: 03:41,0.048,
    Until: 03:46,1.000,
    Until: 03:48,0.000,
    Until: 03:50,1.000,
    Until: 04:35,0.048,
    Until: 04:40,1.000,
    Until: 05:55,0.000,
    Until: 05:57,1.000,
    Until: 06:42,0.048,
    Until: 06:47,1.000,
    Until: 12:59,0.000,
    Until: 13:01,1.000,
    Until: 13:46,0.048,
    Until: 13:51,1.000,
    Until: 24:00,0.000,
    Through: 10/21,
    For: AllDays,
    Until: 04:00,0.000,
    Until: 04:02,1.000,
    Until: 04:47,0.048,
    Until: 04:52,1.000,
    Until: 05:45,0.000,
    Until: 05:47,1.000,
    Until: 06:32,0.048,
    Until: 06:37,1.000,
    Until: 07:00,0.000,
    Until: 07:02,1.000,
    Until: 07:47,0.048,
    Until: 07:52,1.000,
    Until: 10:59,0.000,
    Until: 11:01,1.000,
    Until: 11:46,0.048,
    Until: 11:51,1.000,
    Until: 13:49,0.000,
    Until: 13:51,1.000,
    Until: 14:36,0.048,
    Until: 14:41,1.000,
    Until: 24:00,0.000,
    Through: 10/22,
    For: AllDays,
    Until: 01:44,0.000,
    Until: 01:46,1.000,
    Until: 02:31,0.048,
    Until: 02:36,1.000,
    Until: 03:07,0.000,
    Until: 03:09,1.000,
    Until: 03:54,0.048,
    Until: 03:59,1.000,
    Until: 04:07,0.000,
    Until: 04:09,1.000,
    Until: 04:54,0.048,
    Until: 04:59,1.000,
    Until: 08:01,0.000,
    Until: 08:03,1.000,
    Until: 08:48,0.048,
    Until: 08:53,1.000,
    Until: 11:24,0.000,
    Until: 11:26,1.000,
    Until: 12:11,0.048,
    Until: 12:16,1.000,
    Until: 12:34,0.000,
    Until: 12:36,1.000,
    Until: 13:21,0.048,
    Until: 13:26,1.000,
    Until: 15:45,0.000,
    Until: 15:47,1.000,
    Until: 16:32,0.048,
    Until: 16:37,1.000,
    Until: 24:00,0.000,
    Through: 10/23,
    For: AllDays,
    Until: 01:12,0.000,
    Until: 01:14,1.000,
    Until: 01:59,0.048,
    Until: 02:04,1.000,
    Until: 02:05,0.000,
    Until: 02:07,1.000,
    Until: 02:52,0.048,
    Until: 02:57,1.000,
    Until: 02:58,0.000,
    Until: 03:00,1.000,
    Until: 03:45,0.048,
    Until: 03:50,1.000,
    Until: 10:16,0.000,
    Until: 10:18,1.000,
    Until: 11:03,0.048,
    Until: 11:08,1.000,
    Until: 18:05,0.000,
    Until: 18:07,1.000,
    Until: 18:52,0.048,
    Until: 18:57,1.000,
    Until: 24:00,0.000,
    Through: 10/24,
    For: AllDays,
    Until: 24:00,0.000,
    Through: 10/25,
    For: AllDays,
    Until: 24:00,0.000,
    Through: 10/26,
    For: AllDays,
    Until: 01:24,0.000,
    Until: 01:26,1.000,
    Until: 02:11,0.048,
    Until: 02:16,1.000,
    Until: 03:38,0.000,
    Until: 03:40,1.000,
    Until: 04:25,0.048,
    Until: 04:30,1.000,
    Until: 08:06,0.000,
    Until: 08:08,1.000,
    Until: 08:53,0.048,
    Until: 08:58,1.000,
    Until: 11:03,0.000,
    Until: 11:05,1.000,
    Until: 11:50,0.048,
    Until: 11:55,1.000,
    Until: 12:28,0.000,
    Until: 12:30,1.000,
    Until: 13:15,0.048,
    Until: 13:20,1.000,
    Until: 16:29,0.000,
    Until: 16:31,1.000,
    Until: 17:16,0.048,
    Until: 17:21,1.000,
    Until: 24:00,0.000,
    Through: 10/27,
    For: AllDays,
    Until: 00:46,0.000,
    Until: 00:48,1.000,
    Until: 01:33,0.048,
    Until: 01:38,1.000,
    Until: 01:57,0.000,
    Until: 01:59,1.000,
    Until: 02:44,0.048,
    Until: 02:49,1.000,
    Until: 04:00,0.000,
    Until: 04:02,1.000,
    Until: 04:47,0.048,
    Until: 04:52,1.000,
    Until: 08:02,0.000,
    Until: 08:04,1.000,
    Until: 08:49,0.048,
    Until: 08:54,1.000,
    Until: 11:04,0.000,
    Until: 11:06,1.000,
    Until: 11:51,0.048,
    Until: 11:56,1.000,
    Until: 12:28,0.000,
    Until: 12:30,1.000,
    Until: 13:15,0.048,
    Until: 13:20,1.000,
    Until: 24:00,0.000,
    Through: 10/28,
    For: AllDays,
    Until: 03:13,0.000,
    Until: 03:15,1.000,
    Until: 04:00,0.048,
    Until: 04:05,1.000,
    Until: 04:28,0.000,
    Until: 04:30,1.000,
    Until: 05:15,0.048,
    Until: 05:20,1.000,
    Until: 10:23,0.000,
    Until: 10:25,1.000,
    Until: 11:10,0.048,
    Until: 11:15,1.000,
    Until: 11:21,0.000,
    Until: 11:23,1.000,
    Until: 12:08,0.048,
    Until: 12:13,1.000,
    Until: 15:20,0.000,
    Until: 15:22,1.000,
    Until: 16:07,0.048,
    Until: 16:12,1.000,
    Until: 24:00,0.000,
    Through: 10/29,
    For: AllDays,
    Until: 01:16,0.000,
    Until: 01:18,1.000,
    Until: 02:03,0.048,
    Until: 02:08,1.000,
    Until: 02:43,0.000,
    Until: 02:45,1.000,
    Until: 03:30,0.048,
    Until: 03:35,1.000,
    Until: 07:32,0.000,
    Until: 07:34,1.000,
    Until: 08:19,0.048,
    Until: 08:24,1.000,
    Until: 10:37,0.000,
    Until: 10:39,1.000,
    Until: 11:24,0.048,
    Until: 11:29,1.000,
    Until: 13:41,0.000,
    Until: 13:43,1.000,
    Until: 14:28,0.048,
    Until: 14:33,1.000,
    Until: 24:00,0.000,
    Through: 10/30,
    For: AllDays,
    Until: 01:01,0.000,
    Until: 01:03,1.000,
    Until: 01:48,0.048,
    Until: 01:53,1.000,
    Until: 02:05,0.000,
    Until: 02:07,1.000,
    Until: 02:52,0.048,
    Until: 02:57,1.000,
    Until: 03:01,0.000,
    Until: 03:03,1.000,
    Until: 03:48,0.048,
    Until: 03:53,1.000,
    Until: 08:18,0.000,
    Until: 08:20,1.000,
    Until: 09:05,0.048,
    Until: 09:10,1.000,
    Until: 09:57,0.000,
    Until: 09:59,1.000,
    Until: 10:44,0.048,
    Until: 10:49,1.000,
    Until: 11:41,0.000,
    Until: 11:43,1.000,
    Until: 12:28,0.048,
    Until: 12:33,1.000,
    Until: 12:57,0.000,
    Until: 12:59,1.000,
    Until: 13:44,0.048,
    Until: 13:49,1.000,
    Until: 16:14,0.000,
    Until: 16:16,1.000,
    Until: 17:01,0.048,
    Until: 17:06,1.000,
    Until: 24:00,0.000,
    Through: 10/31,
    For: AllDays,
    Until: 24:00,0.000,
    Through: 11/1,
    For: AllDays,
    Until: 24:00,0.000,
    Through: 11/2,
    For: AllDays,
    Until: 01:15,0.000,
    Until: 01:17,1.000,
    Until: 02:02,0.048,
    Until: 02:07,1.000,
    Until: 03:34,0.000,
    Until: 03:36,1.000,
    Until: 04:21,0.048,
    Until: 04:26,1.000,
    Until: 11:06,0.000,
    Until: 11:08,1.000,
    Until: 11:53,0.048,
    Until: 11:58,1.000,
    Until: 12:06,0.000,
    Until: 12:08,1.000,
    Until: 12:53,0.048,
    Until: 12:58,1.000,
    Until: 15:31,0.000,
    Until: 15:33,1.000,
    Until: 16:18,0.048,
    Until: 16:23,1.000,
    Until: 24:00,0.000,
    Through: 11/3,
    For: AllDays,
    Until: 01:13,0.000,
    Until: 01:15,1.000,
    Until: 02:00,0.048,
    Until: 02:05,1.000,
    Until: 04:13,0.000,
    Until: 04:15,1.000,
    Until: 05:00,0.048,
    Until: 05:05,1.000,
    Until: 06:53,0.000,
    Until: 06:55,1.000,
    Until: 07:40,0.048,
    Until: 07:45,1.000,
    Until: 15:32,0.000,
    Until: 15:34,1.000,
    Until: 16:19,0.048,
    Until: 16:24,1.000,
    Until: 24:00,0.000,
    Through: 11/4,
    For: AllDays,
    Until: 02:28,0.000,
    Until: 02:30,1.000,
    Until: 03:15,0.048,
    Until: 03:20,1.000,
    Until: 03:50,0.000,
    Until: 03:52,1.000,
    Until: 04:37,0.048,
    Until: 04:42,1.000,
    Until: 09:08,0.000,
    Until: 09:10,1.000,
    Until: 09:55,0.048,
    Until: 10:00,1.000,
    Until: 12:07,0.000,
    Until: 12:09,1.000,
    Until: 12:54,0.048,
    Until: 12:59,1.000,
    Until: 15:27,0.000,
    Until: 15:29,1.000,
    Until: 16:14,0.048,
    Until: 16:19,1.000,
    Until: 24:00,0.000,
    Through: 11/5,
    For: AllDays,
    Until: 00:40,0.000,
    Until: 00:42,1.000,
    Until: 01:27,0.048,
    Until: 01:32,1.000,
    Until: 01:56,0.000,
    Until: 01:58,1.000,
    Until: 02:43,0.048,
    Until: 02:48,1.000,
    Until: 03:10,0.000,
    Until: 03:12,1.000,
    Until: 03:57,0.048,
    Until: 04:02,1.000,
    Until: 07:17,0.000,
    Until: 07:19,1.000,
    Until: 08:04,0.048,
    Until: 08:09,1.000,
    Until: 11:04,0.000,
    Until: 11:06,1.000,
    Until: 11:51,0.048,
    Until: 11:56,1.000,
    Until: 15:39,0.000,
    Until: 15:41,1.000,
    Until: 16:26,0.048,
    Until: 16:31,1.000,
    Until: 24:00,0.000,
    Through: 11/6,
    For: AllDays,
    Until: 03:12,0.000,
    Until: 03:14,1.000,
    Until: 03:59,0.048,
    Until: 04:04,1.000,
    Until: 07:28,0.000,
    Until: 07:30,1.000,
    Until: 08:15,0.048,
    Until: 08:20,1.000,
    Until: 10:41,0.000,
    Until: 10:43,1.000,
    Until: 11:28,0.048,
    Until: 11:33,1.000,
    Until: 11:35,0.000,
    Until: 11:37,1.000,
    Until: 12:22,0.048,
    Until: 12:27,1.000,
    Until: 14:59,0.000,
    Until: 15:01,1.000,
    Until: 15:46,0.048,
    Until: 15:51,1.000,
    Until: 24:00,0.000,
    Through: 11/7,
    For: AllDays,
    Until: 24:00,0.000,
    Through: 11/8,
    For: AllDays,
    Until: 24:00,0.000,
    Through: 11/9,
    For: AllDays,
    Until: 01:01,0.000,
    Until: 01:03,1.000,
    Until: 01:48,0.048,
    Until: 01:53,1.000,
    Until: 07:06,0.000,
    Until: 07:08,1.000,
    Until: 07:53,0.048,
    Until: 07:58,1.000,
    Until: 11:57,0.000,
    Until: 11:59,1.000,
    Until: 12:44,0.048,
    Until: 12:49,1.000,
    Until: 24:00,0.000,
    Through: 11/10,
    For: AllDays,
    Until: 02:33,0.000,
    Until: 02:35,1.000,
    Until: 03:20,0.048,
    Until: 03:25,1.000,
    Until: 04:18,0.000,
    Until: 04:20,1.000,
    Until: 05:05,0.048,
    Until: 05:10,1.000,
    Until: 08:57,0.000,
    Until: 08:59,1.000,
    Until: 09:44,0.048,
    Until: 09:49,1.000,
    Until: 11:20,0.000,
    Until: 11:22,1.000,
    Until: 12:07,0.048,
    Until: 12:12,1.000,
    Until: 15:06,0.000,
    Until: 15:08,1.000,
    Until: 15:53,0.048,
    Until: 15:58,1.000,
    Until: 24:00,0.000,
    Through: 11/11,
    For: AllDays,
    Until: 00:30,0.000,
    Until: 00:32,1.000,
    Until: 01:17,0.048,
    Until: 01:22,1.000,
    Until: 02:52,0.000,
    Until: 02:54,1.000,
    Until: 03:39,0.048,
    Until: 03:44,1.000,
    Until: 07:43,0.000,
    Until: 07:45,1.000,
    Until: 08:30,0.048,
    Until: 08:35,1.000,
    Until: 10:25,0.000,
    Until: 10:27,1.000,
    Until: 11:12,0.048,
    Until: 11:17,1.000,
    Until: 12:55,0.000,
    Until: 12:57,1.000,
    Until: 13:42,0.048,
    Until: 13:47,1.000,
    Until: 15:22,0.000,
    Until: 15:24,1.000,
    Until: 16:09,0.048,
    Until: 16:14,1.000,
    Until: 24:00,0.000,
    Through: 11/12,
    For: AllDays,
    Until: 00:20,0.000,
    Until: 00:22,1.000,
    Until: 01:07,0.048,
    Until: 01:12,1.000,
    Until: 01:56,0.000,
    Until: 01:58,1.000,
    Until: 02:43,0.048,
    Until: 02:48,1.000,
    Until: 03:13,0.000,
    Until: 03:15,1.000,
    Until: 04:00,0.048,
    Until: 04:05,1.000,
    Until: 13:19,0.000,
    Until: 13:21,1.000,
    Until: 14:06,0.048,
    Until: 14:11,1.000,
    Until: 16:13,0.000,
    Until: 16:15,1.000,
    Until: 17:00,0.048,
    Until: 17:05,1.000,
    Until: 24:00,0.000,
    Through: 11/13,
    For: AllDays,
    Until: 00:31,0.000,
    Until: 00:33,1.000,
    Until: 01:18,0.048,
    Until: 01:23,1.000,
    Until: 01:41,0.000,
    Until: 01:43,1.000,
    Until: 02:28,0.048,
    Until: 02:33,1.000,
    Until: 02:38,0.000,
    Until: 02:40,1.000,
    Until: 03:25,0.048,
    Until: 03:30,1.000,
    Until: 07:25,0.000,
    Until: 07:27,1.000,
    Until: 08:12,0.048,
    Until: 08:17,1.000,
    Until: 13:12,0.000,
    Until: 13:14,1.000,
    Until: 13:59,0.048,
    Until: 14:04,1.000,
    Until: 15:28,0.000,
    Until: 15:30,1.000,
    Until: 16:15,0.048,
    Until: 16:20,1.000,
    Until: 24:00,0.000,
    Through: 11/14,
    For: AllDays,
    Until: 24:00,0.000,
    Through: 11/15,
    For: AllDays,
    Until: 24:00,0.000,
    Through: 11/16,
    For: AllDays,
    Until: 03:06,0.000,
    Until: 03:08,1.000,
    Until: 03:53,0.048,
    Until: 03:58,1.000,
    Until: 07:01,0.000,
    Until: 07:03,1.000,
    Until: 07:48,0.048,
    Until: 07:53,1.000,
    Until: 10:14,0.000,
    Until: 10:16,1.000,
    Until: 11:01,0.048,
    Until: 11:06,1.000,
    Until: 11:36,0.000,
    Until: 11:38,1.000,
    Until: 12:23,0.048,
    Until: 12:28,1.000,
    Until: 24:00,0.000,
    Through: 11/17,
    For: AllDays,
    Until: 02:04,0.000,
    Until: 02:06,1.000,
    Until: 02:51,0.048,
    Until: 02:56,1.000,
    Until: 03:05,0.000,
    Until: 03:07,1.000,
    Until: 03:52,0.048,
    Until: 03:57,1.000,
    Until: 11:33,0.000,
    Until: 11:35,1.000,
    Until: 12:20,0.048,
    Until: 12:25,1.000,
    Until: 17:25,0.000,
    Until: 17:27,1.000,
    Until: 18:12,0.048,
    Until: 18:17,1.000,
    Until: 24:00,0.000,
    Through: 11/18,
    For: AllDays,
    Until: 02:22,0.000,
    Until: 02:24,1.000,
    Until: 03:09,0.048,
    Until: 03:14,1.000,
    Until: 03:54,0.000,
    Until: 03:56,1.000,
    Until: 04:41,0.048,
    Until: 04:46,1.000,
    Until: 07:23,0.000,
    Until: 07:25,1.000,
    Until: 08:10,0.048,
    Until: 08:15,1.000,
    Until: 16:15,0.000,
    Until: 16:17,1.000,
    Until: 17:02,0.048,
    Until: 17:07,1.000,
    Until: 24:00,0.000,
    Through: 11/19,
    For: AllDays,
    Until: 03:08,0.000,
    Until: 03:10,1.000,
    Until: 03:55,0.048,
    Until: 04:00,1.000,
    Until: 10:51,0.000,
    Until: 10:53,1.000,
    Until: 11:38,0.048,
    Until: 11:43,1.000,
    Until: 14:56,0.000,
    Until: 14:58,1.000,
    Until: 15:43,0.048,
    Until: 15:48,1.000,
    Until: 24:00,0.000,
    Through: 11/20,
    For: AllDays,
    Until: 03:10,0.000,
    Until: 03:12,1.000,
    Until: 03:57,0.048,
    Until: 04:02,1.000,
    Until: 07:49,0.000,
    Until: 07:51,1.000,
    Until: 08:36,0.048,
    Until: 08:41,1.000,
    Until: 24:00,0.000,
    Through: 11/21,
    For: AllDays,
    Until: 24:00,0.000,
    Through: 11/22,
    For: AllDays,
    Until: 24:00,0.000,
    Through: 11/23,
    For: AllDays,
    Until: 01:43,0.000,
    Until: 01:45,1.000,
    Until: 02:30,0.048,
    Until: 02:35,1.000,
    Until: 02:36,0.000,
    Until: 02:38,1.000,
    Until: 03:23,0.048,
    Until: 03:28,1.000,
    Until: 06:01,0.000,
    Until: 06:03,1.000,
    Until: 06:48,0.048,
    Until: 06:53,1.000,
    Until: 10:21,0.000,
    Until: 10:23,1.000,
    Until: 11:08,0.048,
    Until: 11:13,1.000,
    Until: 11:15,0.000,
    Until: 11:17,1.000,
    Until: 12:02,0.048,
    Until: 12:07,1.000,
    Until: 24:00,0.000,
    Through: 11/24,
    For: AllDays,
    Until: 00:47,0.000,
    Until: 00:49,1.000,
    Until: 01:34,0.048,
    Until: 01:39,1.000,
    Until: 03:03,0.000,
    Until: 03:05,1.000,
    Until: 03:50,0.048,
    Until: 03:55,1.000,
    Until: 06:07,0.000,
    Until: 06:09,1.000,
    Until: 06:54,0.048,
    Until: 06:59,1.000,
    Until: 10:34,0.000,
    Until: 10:36,1.000,
    Until: 11:21,0.048,
    Until: 11:26,1.000,
    Until: 24:00,0.000,
    Through: 11/25,
    For: AllDays,
    Until: 02:44,0.000,
    Until: 02:46,1.000,
    Until: 03:31,0.048,
    Until: 03:36,1.000,
    Until: 05:03,0.000,
    Until: 05:05,1.000,
    Until: 05:50,0.048,
    Until: 05:55,1.000,
    Until: 06:47,0.000,
    Until: 06:49,1.000,
    Until: 07:34,0.048,
    Until: 07:39,1.000,
    Until: 11:22,0.000,
    Until: 11:24,1.000,
    Until: 12:09,0.048,
    Until: 12:14,1.000,
    Until: 12:27,0.000,
    Until: 12:29,1.000,
    Until: 13:14,0.048,
    Until: 13:19,1.000,
    Until: 15:03,0.000,
    Until: 15:05,1.000,
    Until: 15:50,0.048,
    Until: 15:55,1.000,
    Until: 24:00,0.000,
    Through: 11/26,
    For: AllDays,
    Until: 02:07,0.000,
    Until: 02:09,1.000,
    Until: 02:54,0.048,
    Until: 02:59,1.000,
    Until: 03:50,0.000,
    Until: 03:52,1.000,
    Until: 04:37,0.048,
    Until: 04:42,1.000,
    Until: 10:12,0.000,
    Until: 10:14,1.000,
    Until: 10:59,0.048,
    Until: 11:04,1.000,
    Until: 12:21,0.000,
    Until: 12:23,1.000,
    Until: 13:08,0.048,
    Until: 13:13,1.000,
    Until: 24:00,0.000,
    Through: 11/27,
    For: AllDays,
    Until: 03:30,0.000,
    Until: 03:32,1.000,
    Until: 04:17,0.048,
    Until: 04:22,1.000,
    Until: 06:39,0.000,
    Until: 06:41,1.000,
    Until: 07:26,0.048,
    Until: 07:31,1.000,
    Until: 08:17,0.000,
    Until: 08:19,1.000,
    Until: 09:04,0.048,
    Until: 09:09,1.000,
    Until: 13:06,0.000,
    Until: 13:08,1.000,
    Until: 13:53,0.048,
    Until: 13:58,1.000,
    Until: 16:18,0.000,
    Until: 16:20,1.000,
    Until: 17:05,0.048,
    Until: 17:10,1.000,
    Until: 24:00,0.000,
    Through: 11/28,
    For: AllDays,
    Until: 24:00,0.000,
    Through: 11/29,
    For: AllDays,
    Until: 24:00,0.000,
    Through: 11/30,
    For: AllDays,
    Until: 01:56,0.000,
    Until: 01:58,1.000,
    Until: 02:43,0.048,
    Until: 02:48,1.000,
    Until: 02:49,0.000,
    Until: 02:51,1.000,
    Until: 03:36,0.048,
    Until: 03:41,1.000,
    Until: 13:41,0.000,
    Until: 13:43,1.000,
    Until: 14:28,0.048,
    Until: 14:33,1.000,
    Until: 24:00,0.000,
    Through: 12/1,
    For: AllDays,
    Until: 03:11,0.000,
    Until: 03:13,1.000,
    Until: 03:58,0.048,
    Until: 04:03,1.000,
    Until: 04:04,0.000,
    Until: 04:06,1.000,
    Until: 04:51,0.048,
    Until: 04:56,1.000,
    Until: 11:09,0.000,
    Until: 11:11,1.000,
    Until: 11:56,0.048,
    Until: 12:01,1.000,
    Until: 14:32,0.000,
    Until: 14:34,1.000,
    Until: 15:19,0.048,
    Until: 15:24,1.000,
    Until: 24:00,0.000,
    Through: 12/2,
    For: AllDays,
    Until: 02:54,0.000,
    Until: 02:56,1.000,
    Until: 03:41,0.048,
    Until: 03:46,1.000,
    Until: 03:47,0.000,
    Until: 03:49,1.000,
    Until: 04:34,0.048,
    Until: 04:39,1.000,
    Until: 12:23,0.000,
    Until: 12:25,1.000,
    Until: 13:10,0.048,
    Until: 13:15,1.000,
    Until: 24:00,0.000,
    Through: 12/3,
    For: AllDays,
    Until: 02:33,0.000,
    Until: 02:35,1.000,
    Until: 03:20,0.048,
    Until: 03:25,1.000,
    Until: 03:34,0.000,
    Until: 03:36,1.000,
    Until: 04:21,0.048,
    Until: 04:26,1.000,
    Until: 15:48,0.000,
    Until: 15:50,1.000,
    Until: 16:35,0.048,
    Until: 16:40,1.000,
    Until: 24:00,0.000,
    Through: 12/4,
    For: AllDays,
    Until: 03:24,0.000,
    Until: 03:26,1.000,
    Until: 04:11,0.048,
    Until: 04:16,1.000,
    Until: 07:23,0.000,
    Until: 07:25,1.000,
    Until: 08:10,0.048,
    Until: 08:15,1.000,
    Until: 10:42,0.000,
    Until: 10:44,1.000,
    Until: 11:29,0.048,
    Until: 11:34,1.000,
    Until: 24:00,0.000,
    Through: 12/5,
    For: AllDays,
    Until: 24:00,0.000,
    Through: 12/6,
    For: AllDays,
    Until: 24:00,0.000,
    Through: 12/7,
    For: AllDays,
    Until: 00:24,0.000,
    Until: 00:26,1.000,
    Until: 01:11,0.048,
    Until: 01:16,1.000,
    Until: 01:22,0.000,
    Until: 01:24,1.000,
    Until: 02:09,0.048,
    Until: 02:14,1.000,
    Until: 03:31,0.000,
    Until: 03:33,1.000,
    Until: 04:18,0.048,
    Until: 04:23,1.000,
    Until: 06:43,0.000,
    Until: 06:45,1.000,
    Until: 07:30,0.048,
    Until: 07:35,1.000,
    Until: 07:39,0.000,
    Until: 07:41,1.000,
    Until: 08:26,0.048,
    Until: 08:31,1.000,
    Until: 13:28,0.000,
    Until: 13:30,1.000,
    Until: 14:15,0.048,
    Until: 14:20,1.000,
    Until: 16:54,0.000,
    Until: 16:56,1.000,
    Until: 17:41,0.048,
    Until: 17:46,1.000,
    Until: 24:00,0.000,
    Through: 12/8,
    For: AllDays,
    Until: 02:03,0.000,
    Until: 02:05,1.000,
    Until: 02:50,0.048,
    Until: 02:55,1.000,
    Until: 03:46,0.000,
    Until: 03:48,1.000,
    Until: 04:33,0.048,
    Until: 04:38,1.000,
    Until: 06:40,0.000,
    Until: 06:42,1.000,
    Until: 07:27,0.048,
    Until: 07:32,1.000,
    Until: 12:32,0.000,
    Until: 12:34,1.000,
    Until: 13:19,0.048,
    Until: 13:24,1.000,
    Until: 18:21,0.000,
    Until: 18:23,1.000,
    Until: 19:08,0.048,
    Until: 19:13,1.000,
    Until: 24:00,0.000,
    Through: 12/9,
    For: AllDays,
    Until: 03:40,0.000,
    Until: 03:42,1.000,
    Until: 04:27,0.048,
    Until: 04:32,1.000,
    Until: 06:43,0.000,
    Until: 06:45,1.000,
    Until: 07:30,0.048,
    Until: 07:35,1.000,
    Until: 12:56,0.000,
    Until: 12:58,1.000,
    Until: 13:43,0.048,
    Until: 13:48,1.000,
    Until: 15:17,0.000,
    Until: 15:19,1.000,
    Until: 16:04,0.048,
    Until: 16:09,1.000,
    Until: 24:00,0.000,
    Through: 12/10,
    For: AllDays,
    Until: 02:15,0.000,
    Until: 02:17,1.000,
    Until: 03:02,0.048,
    Until: 03:07,1.000,
    Until: 03:30,0.000,
    Until: 03:32,1.000,
    Until: 04:17,0.048,
    Until: 04:22,1.000,
    Until: 06:40,0.000,
    Until: 06:42,1.000,
    Until: 07:27,0.048,
    Until: 07:32,1.000,
    Until: 08:21,0.000,
    Until: 08:23,1.000,
    Until: 09:08,0.048,
    Until: 09:13,1.000,
    Until: 10:34,0.000,
    Until: 10:36,1.000,
    Until: 11:21,0.048,
    Until: 11:26,1.000,
    Until: 13:09,0.000,
    Until: 13:11,1.000,
    Until: 13:56,0.048,
    Until: 14:01,1.000,
    Until: 24:00,0.000,
    Through: 12/11,
    For: AllDays,
    Until: 01:36,0.000,
    Until: 01:38,1.000,
    Until: 02:23,0.048,
    Until: 02:28,1.000,
    Until: 02:34,0.000,
    Until: 02:36,1.000,
    Until: 03:21,0.048,
    Until: 03:26,1.000,
    Until: 04:12,0.000,
    Until: 04:14,1.000,
    Until: 04:59,0.048,
    Until: 05:04,1.000,
    Until: 06:04,0.000,
    Until: 06:06,1.000,
    Until: 06:51,0.048,
    Until: 06:56,1.000,
    Until: 11:13,0.000,
    Until: 11:15,1.000,
    Until: 12:00,0.048,
    Until: 12:05,1.000,
    Until: 12:31,0.000,
    Until: 12:33,1.000,
    Until: 13:18,0.048,
    Until: 13:23,1.000,
    Until: 24:00,0.000,
    Through: 12/12,
    For: AllDays,
    Until: 24:00,0.000,
    Through: 12/13,
    For: AllDays,
    Until: 24:00,0.000,
    Through: 12/14,
    For: AllDays,
    Until: 01:49,0.000,
    Until: 01:51,1.000,
    Until: 02:36,0.048,
    Until: 02:41,1.000,
    Until: 04:17,0.000,
    Until: 04:19,1.000,
    Until: 05:04,0.048,
    Until: 05:09,1.000,
    Until: 12:42,0.000,
    Until: 12:44,1.000,
    Until: 13:29,0.048,
    Until: 13:34,1.000,
    Until: 15:29,0.000,
    Until: 15:31,1.000,
    Until: 16:16,0.048,
    Until: 16:21,1.000,
    Until: 24:00,0.000,
    Through: 12/15,
    For: AllDays,
    Until: 01:35,0.000,
    Until: 01:37,1.000,
    Until: 02:22,0.048,
    Until: 02:27,1.000,
    Until: 02:50,0.000,
    Until: 02:52,1.000,
    Until: 03:37,0.048,
    Until: 03:42,1.000,
    Until: 03:43,0.000,
    Until: 03:45,1.000,
    Until: 04:30,0.048,
    Until: 04:35,1.000,
    Until: 06:37,0.000,
    Until: 06:39,1.000,
    Until: 07:24,0.048,
    Until: 07:29,1.000,
    Until: 10:20,0.000,
    Until: 10:22,1.000,
    Until: 11:07,0.048,
    Until: 11:12,1.000,
    Until: 16:36,0.000,
    Until: 16:38,1.000,
    Until: 17:23,0.048,
    Until: 17:28,1.000,
    Until: 24:00,0.000,
    Through: 12/16,
    For: AllDays,
    Until: 01:20,0.000,
    Until: 01:22,1.000,
    Until: 02:07,0.048,
    Until: 02:12,1.000,
    Until: 02:13,0.000,
    Until: 02:15,1.000,
    Until: 03:00,0.048,
    Until: 03:05,1.000,
    Until: 03:45,0.000,
    Until: 03:47,1.000,
    Until: 04:32,0.048,
    Until: 04:37,1.000,
    Until: 08:38,0.000,
    Until: 08:40,1.000,
    Until: 09:25,0.048,
    Until: 09:30,1.000,
    Until: 11:10,0.000,
    Until: 11:12,1.000,
    Until: 11:57,0.048,
    Until: 12:02,1.000,
    Until: 13:34,0.000,
    Until: 13:36,1.000,
    Until: 14:21,0.048,
    Until: 14:26,1.000,
    Until: 16:05,0.000,
    Until: 16:07,1.000,
    Until: 16:52,0.048,
    Until: 16:57,1.000,
    Until: 24:00,0.000,
    Through: 12/17,
    For: AllDays,
    Until: 01:12,0.000,
    Until: 01:14,1.000,
    Until: 01:59,0.048,
    Until: 02:04,1.000,
    Until: 02:05,0.000,
    Until: 02:07,1.000,
    Until: 02:52,0.048,
    Until: 02:57,1.000,
    Until: 02:58,0.000,
    Until: 03:00,1.000,
    Until: 03:45,0.048,
    Until: 03:50,1.000,
    Until: 08:38,0.000,
    Until: 08:40,1.000,
    Until: 09:25,0.048,
    Until: 09:30,1.000,
    Until: 11:00,0.000,
    Until: 11:02,1.000,
    Until: 11:47,0.048,
    Until: 11:52,1.000,
    Until: 12:55,0.000,
    Until: 12:57,1.000,
    Until: 13:42,0.048,
    Until: 13:47,1.000,
    Until: 24:00,0.000,
    Through: 12/18,
    For: AllDays,
    Until: 01:01,0.000,
    Until: 01:03,1.000,
    Until: 01:48,0.048,
    Until: 01:53,1.000,
    Until: 02:04,0.000,
    Until: 02:06,1.000,
    Until: 02:51,0.048,
    Until: 02:56,1.000,
    Until: 02:57,0.000,
    Until: 02:59,1.000,
    Until: 03:44,0.048,
    Until: 03:49,1.000,
    Until: 04:12,0.000,
    Until: 04:14,1.000,
    Until: 04:59,0.048,
    Until: 05:04,1.000,
    Until: 07:29,0.000,
    Until: 07:31,1.000,
    Until: 08:16,0.048,
    Until: 08:21,1.000,
    Until: 10:18,0.000,
    Until: 10:20,1.000,
    Until: 11:05,0.048,
    Until: 11:10,1.000,
    Until: 11:30,0.000,
    Until: 11:32,1.000,
    Until: 12:17,0.048,
    Until: 12:22,1.000,
    Until: 12:58,0.000,
    Until: 13:00,1.000,
    Until: 13:45,0.048,
    Until: 13:50,1.000,
    Until: 24:00,0.000,
    Through: 12/19,
    For: AllDays,
    Until: 24:00,0.000,
    Through: 12/20,
    For: AllDays,
    Until: 24:00,0.000,
    Through: 12/21,
    For: AllDays,
    Until: 01:19,0.000,
    Until: 01:21,1.000,
    Until: 02:06,0.048,
    Until: 02:11,1.000,
    Until: 02:47,0.000,
    Until: 02:49,1.000,
    Until: 03:34,0.048,
    Until: 03:39,1.000,
    Until: 03:51,0.000,
    Until: 03:53,1.000,
    Until: 04:38,0.048,
    Until: 04:43,1.000,
    Until: 07:53,0.000,
    Until: 07:55,1.000,
    Until: 08:40,0.048,
    Until: 08:45,1.000,
    Until: 13:20,0.000,
    Until: 13:22,1.000,
    Until: 14:07,0.048,
    Until: 14:12,1.000,
    Until: 24:00,0.000,
    Through: 12/22,
    For: AllDays,
    Until: 02:36,0.000,
    Until: 02:38,1.000,
    Until: 03:23,0.048,
    Until: 03:28,1.000,
    Until: 03:43,0.000,
    Until: 03:45,1.000,
    Until: 04:30,0.048,
    Until: 04:35,1.000,
    Until: 09:04,0.000,
    Until: 09:06,1.000,
    Until: 09:51,0.048,
    Until: 09:56,1.000,
    Until: 13:34,0.000,
    Until: 13:36,1.000,
    Until: 14:21,0.048,
    Until: 14:26,1.000,
    Until: 24:00,0.000,
    Through: 12/23,
    For: AllDays,
    Until: 01:23,0.000,
    Until: 01:25,1.000,
    Until: 02:10,0.048,
    Until: 02:15,1.000,
    Until: 02:16,0.000,
    Until: 02:18,1.000,
    Until: 03:03,0.048,
    Until: 03:08,1.000,
    Until: 03:31,0.000,
    Until: 03:33,1.000,
    Until: 04:18,0.048,
    Until: 04:23,1.000,
    Until: 08:33,0.000,
    Until: 08:35,1.000,
    Until: 09:20,0.048,
    Until: 09:25,1.000,
    Until: 11:32,0.000,
    Until: 11:34,1.000,
    Until: 12:19,0.048,
    Until: 12:24,1.000,
    Until: 13:25,0.000,
    Until: 13:27,1.000,
    Until: 14:12,0.048,
    Until: 14:17,1.000,
    Until: 15:22,0.000,
    Until: 15:24,1.000,
    Until: 16:09,0.048,
    Until: 16:14,1.000,
    Until: 24:00,0.000,
    Through: 12/24,
    For: AllDays,
    Until: 01:49,0.000,
    Until: 01:51,1.000,
    Until: 02:36,0.048,
    Until: 02:41,1.000,
    Until: 02:42,0.000,
    Until: 02:44,1.000,
    Until: 03:29,0.048,
    Until: 03:34,1.000,
    Until: 06:10,0.000,
    Until: 06:12,1.000,
    Until: 06:57,0.048,
    Until: 07:02,1.000,
    Until: 09:17,0.000,
    Until: 09:19,1.000,
    Until: 10:04,0.048,
    Until: 10:09,1.000,
    Until: 10:23,0.000,
    Until: 10:25,1.000,
    Until: 11:10,0.048,
    Until: 11:15,1.000,
    Until: 11:19,0.000,
    Until: 11:21,1.000,
    Until: 12:06,0.048,
    Until: 12:11,1.000,
    Until: 24:00,0.000,
    Through: 12/25,
    For: AllDays,
    Until: 03:04,0.000,
    Until: 03:06,1.000,
    Until: 03:51,0.048,
    Until: 03:56,1.000,
    Until: 03:57,0.000,
    Until: 03:59,1.000,
    Until: 04:44,0.048,
    Until: 04:49,1.000,
    Until: 08:00,0.000,
    Until: 08:02,1.000,
    Until: 08:47,0.048,
    Until: 08:52,1.000,
    Until: 11:13,0.000,
    Until: 11:15,1.000,
    Until: 12:00,0.048,
    Until: 12:05,1.000,
    Until: 13:52,0.000,
    Until: 13:54,1.000,
    Until: 14:39,0.048,
    Until: 14:44,1.000,
    Until: 24:00,0.000,
    Through: 12/26,
    For: AllDays,
    Until: 24:00,0.000,
    Through: 12/27,
    For: AllDays,
    Until: 24:00,0.000,
    Through: 12/28,
    For: AllDays,
    Until: 01:59,0.000,
    Until: 02:01,1.000,
    Until: 02:46,0.048,
    Until: 02:51,1.000,
    Until: 04:04,0.000,
    Until: 04:06,1.000,
    Until: 04:51,0.048,
    Until: 04:56,1.000,
    Until: 05:17,0.000,
    Until: 05:19,1.000,
    Until: 06:04,0.048,
    Until: 06:09,1.000,
    Until: 12:38,0.000,
    Until: 12:40,1.000,
    Until: 13:25,0.048,
    Until: 13:30,1.000,
    Until: 14:47,0.000,
    Until: 14:49,1.000,
    Until: 15:34,0.048,
    Until: 15:39,1.000,
    Until: 15:57,0.000,
    Until: 15:59,1.000,
    Until: 16:44,0.048,
    Until: 16:49,1.000,
    Until: 24:00,0.000,
    Through: 12/29,
    For: AllDays,
    Until: 00:27,0.000,
    Until: 00:29,1.000,
    Until: 01:14,0.048,
    Until: 01:19,1.000,
    Until: 01:20,0.000,
    Until: 01:22,1.000,
    Until: 02:07,0.048,
    Until: 02:12,1.000,
    Until: 07:34,0.000,
    Until: 07:36,1.000,
    Until: 08:21,0.048,
    Until: 08:26,1.000,
    Until: 10:24,0.000,
    Until: 10:26,1.000,
    Until: 11:11,0.048,
    Until: 11:16,1.000,
    Until: 11:56,0.000,
    Until: 11:58,1.000,
    Until: 12:43,0.048,
    Until: 12:48,1.000,
    Until: 16:14,0.000,
    Until: 16:16,1.000,
    Until: 17:01,0.048,
    Until: 17:06,1.000,
    Until: 24:00,0.000,
    Through: 12/30,
    For: AllDays,
    Until: 02:57,0.000,
    Until: 02:59,1.000,
    Until: 03:44,0.048,
    Until: 03:49,1.000,
    Until: 03:50,0.000,
    Until: 03:52,1.000,
    Until: 04:37,0.048,
    Until: 04:42,1.000,
    Until: 06:48,0.000,
    Until: 06:50,1.000,
    Until: 07:35,0.048,
    Until: 07:40,1.000,
    Until: 12:05,0.000,
    Until: 12:07,1.000,
    Until: 12:52,0.048,
    Until: 12:57,1.000,
    Until: 16:16,0.000,
    Until: 16:18,1.000,
    Until: 17:03,0.048,
    Until: 17:08,1.000,
    Until: 24:00,0.000,
    Through: 12/31,
    For: AllDays,
    Until: 01:50,0.000,
    Until: 01:52,1.000,
    Until: 02:37,0.048,
    Until: 02:42,1.000,
    Until: 03:00,0.000,
    Until: 03:02,1.000,
    Until: 03:47,0.048,
    Until: 03:52,1.000,
    Until: 03:53,0.000,
    Until: 03:55,1.000,
    Until: 04:40,0.048,
    Until: 04:45,1.000,
    Until: 11:25,0.000,
    Until: 11:27,1.000,
    Until: 12:12,0.048,
    Until: 12:17,1.000,
    Until: 12:48,0.000,
    Until: 12:50,1.000,
    Until: 13:35,0.048,
    Until: 13:40,1.000,
    Until: 24:00,0.000,
    Through: 1/2,
    For: AllDays,
    Until: 24:00,0.000;

Schedule:Compact,
    AN_2_Tor_Schedule,       !- Name
    Fraction,                !- Schedule Type Limits Name
    Through: 1/1,
    For: AllDays,
    Until: 24:00,0.000,
    Through: 1/2,
    For: AllDays,
    Until: 24:00,0.000,
    Through: 1/3,
    For: AllDays,
    Until: 24:00,0.000,
    Through: 1/4,
    For: AllDays,
    Until: 24:00,0.000,
    Through: 1/5,
    For: AllDays,
    Until: 02:22,0.000,
    Until: 02:24,1.000,
    Until: 03:09,0.048,
    Until: 03:14,1.000,
    Until: 03:23,0.000,
    Until: 03:25,1.000,
    Until: 04:10,0.048,
    Until: 04:15,1.000,
    Until: 04:22,0.000,
    Until: 04:24,1.000,
    Until: 05:09,0.048,
    Until: 05:14,1.000,
    Until: 08:17,0.000,
    Until: 08:19,1.000,
    Until: 09:04,0.048,
    Until: 09:09,1.000,
    Until: 11:45,0.000,
    Until: 11:47,1.000,
    Until: 12:32,0.048,
    Until: 12:37,1.000,
    Until: 13:13,0.000,
    Until: 13:15,1.000,
    Until: 14:00,0.048,
    Until: 14:05,1.000,
    Until: 16:02,0.000,
    Until: 16:04,1.000,
    Until: 16:49,0.048,
    Until: 16:54,1.000,
    Until: 24:00,0.000,
    Through: 1/6,
    For: AllDays,
    Until: 00:49,0.000,
    Until: 00:51,1.000,
    Until: 01:36,0.048,
    Until: 01:41,1.000,
    Until: 02:58,0.000,
    Until: 03:00,1.000,
    Until: 03:45,0.048,
    Until: 03:50,1.000,
    Until: 04:20,0.000,
    Until: 04:22,1.000,
    Until: 05:07,0.048,
    Until: 05:12,1.000,
    Until: 10:16,0.000,
    Until: 10:18,1.000,
    Until: 11:03,0.048,
    Until: 11:08,1.000,
    Until: 12:56,0.000,
    Until: 12:58,1.000,
    Until: 13:43,0.048,
    Until: 13:48,1.000,
    Until: 24:00,0.000,
    Through: 1/7,
    For: AllDays,
    Until: 01:28,0.000,
    Until: 01:30,1.000,
    Until: 02:15,0.048,
    Until: 02:20,1.000,
    Until: 02:21,0.000,
    Until: 02:23,1.000,
    Until: 03:08,0.048,
    Until: 03:13,1.000,
    Until: 03:14,0.000,
    Until: 03:16,1.000,
    Until: 04:01,0.048,
    Until: 04:06,1.000,
    Until: 07:09,0.000,
    Until: 07:11,1.000,
    Until: 07:56,0.048,
    Until: 08:01,1.000,
    Until: 08:27,0.000,
    Until: 08:29,1.000,
    Until: 09:14,0.048,
    Until: 09:19,1.000,
    Until: 24:00,0.000,
    Through: 1/8,
    For: AllDays,
    Until: 01:31,0.000,
    Until: 01:33,1.000,
    Until: 02:18,0.048,
    Until: 02:23,1.000,
    Until: 03:12,0.000,
    Until: 03:14,1.000,
    Until: 03:59,0.048,
    Until: 04:04,1.000,
    Until: 06:03,0.000,
    Until: 06:05,1.000,
    Until: 06:50,0.048,
    Until: 06:55,1.000,
    Until: 07:14,0.000,
    Until: 07:16,1.000,
    Until: 08:01,0.048,
    Until: 08:06,1.000,
    Until: 12:41,0.000,
    Until: 12:43,1.000,
    Until: 13:28,0.048,
    Until: 13:33,1.000,
    Until: 17:23,0.000,
    Until: 17:25,1.000,
    Until: 18:10,0.048,
    Until: 18:15,1.000,
    Until: 24:00,0.000,
    Through: 1/9,
    For: AllDays,
    Until: 00:33,0.000,
    Until: 00:35,1.000,
    Until: 01:20,0.048,
    Until: 01:25,1.000,
    Until: 01:35,0.000,
    Until: 01:37,1.000,
    Until: 02:22,0.048,
    Until: 02:27,1.000,
    Until: 02:28,0.000,
    Until: 02:30,1.000,
    Until: 03:15,0.048,
    Until: 03:20,1.000,
    Until: 03:44,0.000,
    Until: 03:46,1.000,
    Until: 04:31,0.048,
    Until: 04:36,1.000,
    Until: 06:27,0.000,
    Until: 06:29,1.000,
    Until: 07:14,0.048,
    Until: 07:19,1.000,
    Until: 12:40,0.000,
    Until: 12:42,1.000,
    Until: 13:27,0.048,
    Until: 13:32,1.000,
    Until: 16:40,0.000,
    Until: 16:42,1.000,
    Until: 17:27,0.048,
    Until: 17:32,1.000,
    Until: 24:00,0.000,
    Through: 1/10,
    For: AllDays,
    Until: 24:00,0.000,
    Through: 1/11,
    For: AllDays,
    Until: 24:00,0.000,
    Through: 1/12,
    For: AllDays,
    Until: 01:21,0.000,
    Until: 01:23,1.000,
    Until: 02:08,0.048,
    Until: 02:13,1.000,
    Until: 03:35,0.000,
    Until: 03:37,1.000,
    Until: 04:22,0.048,
    Until: 04:27,1.000,
    Until: 06:07,0.000,
    Until: 06:09,1.000,
    Until: 06:54,0.048,
    Until: 06:59,1.000,
    Until: 11:30,0.000,
    Until: 11:32,1.000,
    Until: 12:17,0.048,
    Until: 12:22,1.000,
    Until: 12:34,0.000,
    Until: 12:36,1.000,
    Until: 13:21,0.048,
    Until: 13:26,1.000,
    Until: 15:23,0.000,
    Until: 15:25,1.000,
    Until: 16:10,0.048,
    Until: 16:15,1.000,
    Until: 24:00,0.000,
    Through: 1/13,
    For: AllDays,
    Until: 03:27,0.000,
    Until: 03:29,1.000,
    Until: 04:14,0.048,
    Until: 04:19,1.000,
    Until: 04:20,0.000,
    Until: 04:22,1.000,
    Until: 05:07,0.048,
    Until: 05:12,1.000,
    Until: 08:03,0.000,
    Until: 08:05,1.000,
    Until: 08:50,0.048,
    Until: 08:55,1.000,
    Until: 12:01,0.000,
    Until: 12:03,1.000,
    Until: 12:48,0.048,
    Until: 12:53,1.000,
    Until: 17:12,0.000,
    Until: 17:14,1.000,
    Until: 17:59,0.048,
    Until: 18:04,1.000,
    Until: 24:00,0.000,
    Through: 1/14,
    For: AllDays,
    Until: 02:49,0.000,
    Until: 02:51,1.000,
    Until: 03:36,0.048,
    Until: 03:41,1.000,
    Until: 03:42,0.000,
    Until: 03:44,1.000,
    Until: 04:29,0.048,
    Until: 04:34,1.000,
    Until: 05:45,0.000,
    Until: 05:47,1.000,
    Until: 06:32,0.048,
    Until: 06:37,1.000,
    Until: 10:40,0.000,
    Until: 10:42,1.000,
    Until: 11:27,0.048,
    Until: 11:32,1.000,
    Until: 11:36,0.000,
    Until: 11:38,1.000,
    Until: 12:23,0.048,
    Until: 12:28,1.000,
    Until: 15:48,0.000,
    Until: 15:50,1.000,
    Until: 16:35,0.048,
    Until: 16:40,1.000,
    Until: 24:00,0.000,
    Through: 1/15,
    For: AllDays,
    Until: 02:04,0.000,
    Until: 02:06,1.000,
    Until: 02:51,0.048,
    Until: 02:56,1.000,
    Until: 02:57,0.000,
    Until: 02:59,1.000,
    Until: 03:44,0.048,
    Until: 03:49,1.000,
    Until: 08:16,0.000,
    Until: 08:18,1.000,
    Until: 09:03,0.048,
    Until: 09:08,1.000,
    Until: 11:23,0.000,
    Until: 11:25,1.000,
    Until: 12:10,0.048,
    Until: 12:15,1.000,
    Until: 12:23,0.000,
    Until: 12:25,1.000,
    Until: 13:10,0.048,
    Until: 13:15,1.000,
    Until: 24:00,0.000,
    Through: 1/16,
    For: AllDays,
    Until: 00:28,0.000,
    Until: 00:30,1.000,
    Until: 01:15,0.048,
    Until: 01:20,1.000,
    Until: 02:37,0.000,
    Until: 02:39,1.000,
    Until: 03:24,0.048,
    Until: 03:29,1.000,
    Until: 03:37,0.000,
    Until: 03:39,1.000,
    Until: 04:24,0.048,
    Until: 04:29,1.000,
    Until: 13:36,0.000,
    Until: 13:38,1.000,
    Until: 14:23,0.048,
    Until: 14:28,1.000,
    Until: 24:00,0.000,
    Through: 1/17,
    For: AllDays,
    Until: 24:00,0.000,
    Through: 1/18,
    For: AllDays,
    Until: 24:00,0.000,
    Through: 1/19,
    For: AllDays,
    Until: 01:52,0.000,
    Until: 01:54,1.000,
    Until: 02:39,0.048,
    Until: 02:44,1.000,
    Until: 02:45,0.000,
    Until: 02:47,1.000,
    Until: 03:32,0.048,
    Until: 03:37,1.000,
    Until: 04:12,0.000,
    Until: 04:14,1.000,
    Until: 04:59,0.048,
    Until: 05:04,1.000,
    Until: 06:32,0.000,
    Until: 06:34,1.000,
    Until: 07:19,0.048,
    Until: 07:24,1.000,
    Until: 10:58,0.000,
    Until: 11:00,1.000,
    Until: 11:45,0.048,
    Until: 11:50,1.000,
    Until: 11:57,0.000,
    Until: 11:59,1.000,
    Until: 12:44,0.048,
    Until: 12:49,1.000,
    Until: 18:17,0.000,
    Until: 18:19,1.000,
    Until: 19:04,0.048,
    Until: 19:09,1.000,
    Until: 24:00,0.000,
    Through: 1/20,
    For: AllDays,
    Until: 02:09,0.000,
    Until: 02:11,1.000,
    Until: 02:56,0.048,
    Until: 03:01,1.000,
    Until: 03:04,0.000,
    Until: 03:06,1.000,
    Until: 03:51,0.048,
    Until: 03:56,1.000,
    Until: 03:57,0.000,
    Until: 03:59,1.000,
    Until: 04:44,0.048,
    Until: 04:49,1.000,
    Until: 11:17,0.000,
    Until: 11:19,1.000,
    Until: 12:04,0.048,
    Until: 12:09,1.000,
    Until: 24:00,0.000,
    Through: 1/21,
    For: AllDays,
    Until: 01:16,0.000,
    Until: 01:18,1.000,
    Until: 02:03,0.048,
    Until: 02:08,1.000,
    Until: 02:34,0.000,
    Until: 02:36,1.000,
    Until: 03:21,0.048,
    Until: 03:26,1.000,
    Until: 03:27,0.000,
    Until: 03:29,1.000,
    Until: 04:14,0.048,
    Until: 04:19,1.000,
    Until: 05:10,0.000,
    Until: 05:12,1.000,
    Until: 05:57,0.048,
    Until: 06:02,1.000,
    Until: 06:26,0.000,
    Until: 06:28,1.000,
    Until: 07:13,0.048,
    Until: 07:18,1.000,
    Until: 12:46,0.000,
    Until: 12:48,1.000,
    Until: 13:33,0.048,
    Until: 13:38,1.000,
    Until: 15:55,0.000,
    Until: 15:57,1.000,
    Until: 16:42,0.048,
    Until: 16:47,1.000,
    Until: 24:00,0.000,
    Through: 1/22,
    For: AllDays,
    Until: 01:13,0.000,
    Until: 01:15,1.000,
    Until: 02:00,0.048,
    Until: 02:05,1.000,
    Until: 03:19,0.000,
    Until: 03:21,1.000,
    Until: 04:06,0.048,
    Until: 04:11,1.000,
    Until: 07:19,0.000,
    Until: 07:21,1.000,
    Until: 08:06,0.048,
    Until: 08:11,1.000,
    Until: 17:23,0.000,
    Until: 17:25,1.000,
    Until: 18:10,0.048,
    Until: 18:15,1.000,
    Until: 24:00,0.000,
    Through: 1/23,
    For: AllDays,
    Until: 01:15,0.000,
    Until: 01:17,1.000,
    Until: 02:02,0.048,
    Until: 02:07,1.000,
    Until: 02:18,0.000,
    Until: 02:20,1.000,
    Until: 03:05,0.048,
    Until: 03:10,1.000,
    Until: 04:05,0.000,
    Until: 04:07,1.000,
    Until: 04:52,0.048,
    Until: 04:57,1.000,
    Until: 17:17,0.000,
    Until: 17:19,1.000,
    Until: 18:04,0.048,
    Until: 18:09,1.000,
    Until: 24:00,0.000,
    Through: 1/24,
    For: AllDays,
    Until: 24:00,0.000,
    Through: 1/25,
    For: AllDays,
    Until: 24:00,0.000,
    Through: 1/26,
    For: AllDays,
    Until: 02:09,0.000,
    Until: 02:11,1.000,
    Until: 02:56,0.048,
    Until: 03:01,1.000,
    Until: 03:02,0.000,
    Until: 03:04,1.000,
    Until: 03:49,0.048,
    Until: 03:54,1.000,
    Until: 03:55,0.000,
    Until: 03:57,1.000,
    Until: 04:42,0.048,
    Until: 04:47,1.000,
    Until: 06:30,0.000,
    Until: 06:32,1.000,
    Until: 07:17,0.048,
    Until: 07:22,1.000,
    Until: 24:00,0.000,
    Through: 1/27,
    For: AllDays,
    Until: 01:16,0.000,
    Until: 01:18,1.000,
    Until: 02:03,0.048,
    Until: 02:08,1.000,
    Until: 02:09,0.000,
    Until: 02:11,1.000,
    Until: 02:56,0.048,
    Until: 03:01,1.000,
    Until: 05:34,0.000,
    Until: 05:36,1.000,
    Until: 06:21,0.048,
    Until: 06:26,1.000,
    Until: 11:34,0.000,
    Until: 11:36,1.000,
    Until: 12:21,0.048,
    Until: 12:26,1.000,
    Until: 12:43,0.000,
    Until: 12:45,1.000,
    Until: 13:30,0.048,
    Until: 13:35,1.000,
    Until: 16:58,0.000,
    Until: 17:00,1.000,
    Until: 17:45,0.048,
    Until: 17:50,1.000,
    Until: 24:00,0.000,
    Through: 1/28,
    For: AllDays,
    Until: 01:26,0.000,
    Until: 01:28,1.000,
    Until: 02:13,0.048,
    Until: 02:18,1.000,
    Until: 02:19,0.000,
    Until: 02:21,1.000,
    Until: 03:06,0.048,
    Until: 03:11,1.000,
    Until: 03:43,0.000,
    Until: 03:45,1.000,
    Until: 04:30,0.048,
    Until: 04:35,1.000,
    Until: 06:57,0.000,
    Until: 06:59,1.000,
    Until: 07:44,0.048,
    Until: 07:49,1.000,
    Until: 24:00,0.000,
    Through: 1/29,
    For: AllDays,
    Until: 03:27,0.000,
    Until: 03:29,1.000,
    Until: 04:14,0.048,
    Until: 04:19,1.000,
    Until: 04:20,0.000,
    Until: 04:22,1.000,
    Until: 05:07,0.048,
    Until: 05:12,1.000,
    Until: 07:24,0.000,
    Until: 07:26,1.000,
    Until: 08:11,0.048,
    Until: 08:16,1.000,
    Until: 10:51,0.000,
    Until: 10:53,1.000,
    Until: 11:38,0.048,
    Until: 11:43,1.000,
    Until: 12:02,0.000,
    Until: 12:04,1.000,
    Until: 12:49,0.048,
    Until: 12:54,1.000,
    Until: 16:53,0.000,
    Until: 16:55,1.000,
    Until: 17:40,0.048,
    Until: 17:45,1.000,
    Until: 24:00,0.000,
    Through: 1/30,
    For: AllDays,
    Until: 01:39,0.000,
    Until: 01:41,1.000,
    Until: 02:26,0.048,
    Until: 02:31,1.000,
    Until: 02:32,0.000,
    Until: 02:34,1.000,
    Until: 03:19,0.048,
    Until: 03:24,1.000,
    Until: 03:25,0.000,
    Until: 03:27,1.000,
    Until: 04:12,0.048,
    Until: 04:17,1.000,
    Until: 12:38,0.000,
    Until: 12:40,1.000,
    Until: 13:25,0.048,
    Until: 13:30,1.000,
    Until: 17:57,0.000,
    Until: 17:59,1.000,
    Until: 18:44,0.048,
    Until: 18:49,1.000,
    Until: 24:00,0.000,
    Through: 1/31,
    For: AllDays,
    Until: 24:00,0.000,
    Through: 2/1,
    For: AllDays,
    Until: 24:00,0.000,
    Through: 2/2,
    For: AllDays,
    Until: 01:32,0.000,
    Until: 01:34,1.000,
    Until: 02:19,0.048,
    Until: 02:24,1.000,
    Until: 03:18,0.000,
    Until: 03:20,1.000,
    Until: 04:05,0.048,
    Until: 04:10,1.000,
    Until: 24:00,0.000,
    Through: 2/3,
    For: AllDays,
    Until: 02:50,0.000,
    Until: 02:52,1.000,
    Until: 03:37,0.048,
    Until: 03:42,1.000,
    Until: 03:43,0.000,
    Until: 03:45,1.000,
    Until: 04:30,0.048,
    Until: 04:35,1.000,
    Until: 12:03,0.000,
    Until: 12:05,1.000,
    Until: 12:50,0.048,
    Until: 12:55,1.000,
    Until: 12:56,0.000,
    Until: 12:58,1.000,
    Until: 13:43,0.048,
    Until: 13:48,1.000,
    Until: 24:00,0.000,
    Through: 2/4,
    For: AllDays,
    Until: 01:09,0.000,
    Until: 01:11,1.000,
    Until: 01:56,0.048,
    Until: 02:01,1.000,
    Until: 03:32,0.000,
    Until: 03:34,1.000,
    Until: 04:19,0.048,
    Until: 04:24,1.000,
    Until: 07:06,0.000,
    Until: 07:08,1.000,
    Until: 07:53,0.048,
    Until: 07:58,1.000,
    Until: 12:42,0.000,
    Until: 12:44,1.000,
    Until: 13:29,0.048,
    Until: 13:34,1.000,
    Until: 24:00,0.000,
    Through: 2/5,
    For: AllDays,
    Until: 01:17,0.000,
    Until: 01:19,1.000,
    Until: 02:04,0.048,
    Until: 02:09,1.000,
    Until: 02:10,0.000,
    Until: 02:12,1.000,
    Until: 02:57,0.048,
    Until: 03:02,1.000,
    Until: 04:07,0.000,
    Until: 04:09,1.000,
    Until: 04:54,0.048,
    Until: 04:59,1.000,
    Until: 08:05,0.000,
    Until: 08:07,1.000,
    Until: 08:52,0.048,
    Until: 08:57,1.000,
    Until: 13:03,0.000,
    Until: 13:05,1.000,
    Until: 13:50,0.048,
    Until: 13:55,1.000,
    Until: 24:00,0.000,
    Through: 2/6,
    For: AllDays,
    Until: 02:59,0.000,
    Until: 03:01,1.000,
    Until: 03:46,0.048,
    Until: 03:51,1.000,
    Until: 04:12,0.000,
    Until: 04:14,1.000,
    Until: 04:59,0.048,
    Until: 05:04,1.000,
    Until: 07:13,0.000,
    Until: 07:15,1.000,
    Until: 08:00,0.048,
    Until: 08:05,1.000,
    Until: 11:30,0.000,
    Until: 11:32,1.000,
    Until: 12:17,0.048,
    Until: 12:22,1.000,
    Until: 24:00,0.000,
    Through: 2/7,
    For: AllDays,
    Until: 24:00,0.000,
    Through: 2/8,
    For: AllDays,
    Until: 24:00,0.000,
    Through: 2/9,
    For: AllDays,
    Until: 03:40,0.000,
    Until: 03:42,1.000,
    Until: 04:27,0.048,
    Until: 04:32,1.000,
    Until: 09:29,0.000,
    Until: 09:31,1.000,
    Until: 10:16,0.048,
    Until: 10:21,1.000,
    Until: 24:00,0.000,
    Through: 2/10,
    For: AllDays,
    Until: 03:03,0.000,
    Until: 03:05,1.000,
    Until: 03:50,0.048,
    Until: 03:55,1.000,
    Until: 03:59,0.000,
    Until: 04:01,1.000,
    Until: 04:46,0.048,
    Until: 04:51,1.000,
    Until: 07:41,0.000,
    Until: 07:43,1.000,
    Until: 08:28,0.048,
    Until: 08:33,1.000,
    Until: 24:00,0.000,
    Through: 2/11,
    For: AllDays,
    Until: 01:11,0.000,
    Until: 01:13,1.000,
    Until: 01:58,0.048,
    Until: 02:03,1.000,
    Until: 03:11,0.000,
    Until: 03:13,1.000,
    Until: 03:58,0.048,
    Until: 04:03,1.000,
    Until: 08:08,0.000,
    Until: 08:10,1.000,
    Until: 08:55,0.048,
    Until: 09:00,1.000,
    Until: 11:24,0.000,
    Until: 11:26,1.000,
    Until: 12:11,0.048,
    Until: 12:16,1.000,
    Until: 24:00,0.000,
    Through: 2/12,
    For: AllDays,
    Until: 00:45,0.000,
    Until: 00:47,1.000,
    Until: 01:32,0.048,
    Until: 01:37,1.000,
    Until: 03:13,0.000,
    Until: 03:15,1.000,
    Until: 04:00,0.048,
    Until: 04:05,1.000,
    Until: 04:25,0.000,
    Until: 04:27,1.000,
    Until: 05:12,0.048,
    Until: 05:17,1.000,
    Until: 06:12,0.000,
    Until: 06:14,1.000,
    Until: 06:59,0.048,
    Until: 07:04,1.000,
    Until: 14:00,0.000,
    Until: 14:02,1.000,
    Until: 14:47,0.048,
    Until: 14:52,1.000,
    Until: 17:11,0.000,
    Until: 17:13,1.000,
    Until: 17:58,0.048,
    Until: 18:03,1.000,
    Until: 24:00,0.000,
    Through: 2/13,
    For: AllDays,
    Until: 03:11,0.000,
    Until: 03:13,1.000,
    Until: 03:58,0.048,
    Until: 04:03,1.000,
    Until: 04:08,0.000,
    Until: 04:10,1.000,
    Until: 04:55,0.048,
    Until: 05:00,1.000,
    Until: 07:03,0.000,
    Until: 07:05,1.000,
    Until: 07:50,0.048,
    Until: 07:55,1.000,
    Until: 10:45,0.000,
    Until: 10:47,1.000,
    Until: 11:32,0.048,
    Until: 11:37,1.000,
    Until: 24:00,0.000,
    Through: 2/14,
    For: AllDays,
    Until: 24:00,0.000,
    Through: 2/15,
    For: AllDays,
    Until: 24:00,0.000,
    Through: 2/16,
    For: AllDays,
    Until: 01:35,0.000,
    Until: 01:37,1.000,
    Until: 02:22,0.048,
    Until: 02:27,1.000,
    Until: 02:28,0.000,
    Until: 02:30,1.000,
    Until: 03:15,0.048,
    Until: 03:20,1.000,
    Until: 05:24,0.000,
    Until: 05:26,1.000,
    Until: 06:11,0.048,
    Until: 06:16,1.000,
    Until: 07:38,0.000,
    Until: 07:40,1.000,
    Until: 08:25,0.048,
    Until: 08:30,1.000,
    Until: 11:13,0.000,
    Until: 11:15,1.000,
    Until: 12:00,0.048,
    Until: 12:05,1.000,
    Until: 12:23,0.000,
    Until: 12:25,1.000,
    Until: 13:10,0.048,
    Until: 13:15,1.000,
    Until: 17:10,0.000,
    Until: 17:12,1.000,
    Until: 17:57,0.048,
    Until: 18:02,1.000,
    Until: 24:00,0.000,
    Through: 2/17,
    For: AllDays,
    Until: 02:20,0.000,
    Until: 02:22,1.000,
    Until: 03:07,0.048,
    Until: 03:12,1.000,
    Until: 03:13,0.000,
    Until: 03:15,1.000,
    Until: 04:00,0.048,
    Until: 04:05,1.000,
    Until: 06:54,0.000,
    Until: 06:56,1.000,
    Until: 07:41,0.048,
    Until: 07:46,1.000,
    Until: 12:55,0.000,
    Until: 12:57,1.000,
    Until: 13:42,0.048,
    Until: 13:47,1.000,
    Until: 17:01,0.000,
    Until: 17:03,1.000,
    Until: 17:48,0.048,
    Until: 17:53,1.000,
    Until: 24:00,0.000,
    Through: 2/18,
    For: AllDays,
    Until: 03:40,0.000,
    Until: 03:42,1.000,
    Until: 04:27,0.048,
    Until: 04:32,1.000,
    Until: 06:49,0.000,
    Until: 06:51,1.000,
    Until: 07:36,0.048,
    Until: 07:41,1.000,
    Until: 24:00,0.000,
    Through: 2/19,
    For: AllDays,
    Until: 02:07,0.000,
    Until: 02:09,1.000,
    Until: 02:54,0.048,
    Until: 02:59,1.000,
    Until: 03:45,0.000,
    Until: 03:47,1.000,
    Until: 04:32,0.048,
    Until: 04:37,1.000,
    Until: 12:36,0.000,
    Until: 12:38,1.000,
    Until: 13:23,0.048,
    Until: 13:28,1.000,
    Until: 24:00,0.000,
    Through: 2/20,
    For: AllDays,
    Until: 01:33,0.000,
    Until: 01:35,1.000,
    Until: 02:20,0.048,
    Until: 02:25,1.000,
    Until: 04:30,0.000,
    Until: 04:32,1.000,
    Until: 05:17,0.048,
    Until: 05:22,1.000,
    Until: 10:32,0.000,
    Until: 10:34,1.000,
    Until: 11:19,0.048,
    Until: 11:24,1.000,
    Until: 11:49,0.000,
    Until: 11:51,1.000,
    Until: 12:36,0.048,
    Until: 12:41,1.000,
    Until: 16:45,0.000,
    Until: 16:47,1.000,
    Until: 17:32,0.048,
    Until: 17:37,1.000,
    Until: 24:00,0.000,
    Through: 2/21,
    For: AllDays,
    Until: 24:00,0.000,
    Through: 2/22,
    For: AllDays,
    Until: 24:00,0.000,
    Through: 2/23,
    For: AllDays,
    Until: 00:41,0.000,
    Until: 00:43,1.000,
    Until: 01:28,0.048,
    Until: 01:33,1.000,
    Until: 01:39,0.000,
    Until: 01:41,1.000,
    Until: 02:26,0.048,
    Until: 02:31,1.000,
    Until: 07:20,0.000,
    Until: 07:22,1.000,
    Until: 08:07,0.048,
    Until: 08:12,1.000,
    Until: 10:33,0.000,
    Until: 10:35,1.000,
    Until: 11:20,0.048,
    Until: 11:25,1.000,
    Until: 12:08,0.000,
    Until: 12:10,1.000,
    Until: 12:55,0.048,
    Until: 13:00,1.000,
    Until: 17:23,0.000,
    Until: 17:25,1.000,
    Until: 18:10,0.048,
    Until: 18:15,1.000,
    Until: 24:00,0.000,
    Through: 2/24,
    For: AllDays,
    Until: 00:47,0.000,
    Until: 00:49,1.000,
    Until: 01:34,0.048,
    Until: 01:39,1.000,
    Until: 02:08,0.000,
    Until: 02:10,1.000,
    Until: 02:55,0.048,
    Until: 03:00,1.000,
    Until: 03:01,0.000,
    Until: 03:03,1.000,
    Until: 03:48,0.048,
    Until: 03:53,1.000,
    Until: 08:13,0.000,
    Until: 08:15,1.000,
    Until: 09:00,0.048,
    Until: 09:05,1.000,
    Until: 12:26,0.000,
    Until: 12:28,1.000,
    Until: 13:13,0.048,
    Until: 13:18,1.000,
    Until: 13:34,0.000,
    Until: 13:36,1.000,
    Until: 14:21,0.048,
    Until: 14:26,1.000,
    Until: 24:00,0.000,
    Through: 2/25,
    For: AllDays,
    Until: 01:04,0.000,
    Until: 01:06,1.000,
    Until: 01:51,0.048,
    Until: 01:56,1.000,
    Until: 02:02,0.000,
    Until: 02:04,1.000,
    Until: 02:49,0.048,
    Until: 02:54,1.000,
    Until: 02:55,0.000,
    Until: 02:57,1.000,
    Until: 03:42,0.048,
    Until: 03:47,1.000,
    Until: 04:01,0.000,
    Until: 04:03,1.000,
    Until: 04:48,0.048,
    Until: 04:53,1.000,
    Until: 06:17,0.000,
    Until: 06:19,1.000,
    Until: 07:04,0.048,
    Until: 07:09,1.000,
    Until: 17:16,0.000,
    Until: 17:18,1.000,
    Until: 18:03,0.048,
    Until: 18:08,1.000,
    Until: 24:00,0.000,
    Through: 2/26,
    For: AllDays,
    Until: 02:56,0.000,
    Until: 02:58,1.000,
    Until: 03:43,0.048,
    Until: 03:48,1.000,
    Until: 04:25,0.000,
    Until: 04:27,1.000,
    Until: 05:12,0.048,
    Until: 05:17,1.000,
    Until: 08:12,0.000,
    Until: 08:14,1.000,
    Until: 08:59,0.048,
    Until: 09:04,1.000,
    Until: 13:23,0.000,
    Until: 13:25,1.000,
    Until: 14:10,0.048,
    Until: 14:15,1.000,
    Until: 24:00,0.000,
    Through: 2/27,
    For: AllDays,
    Until: 01:51,0.000,
    Until: 01:53,1.000,
    Until: 02:38,0.048,
    Until: 02:43,1.000,
    Until: 03:02,0.000,
    Until: 03:04,1.000,
    Until: 03:49,0.048,
    Until: 03:54,1.000,
    Until: 06:52,0.000,
    Until: 06:54,1.000,
    Until: 07:39,0.048,
    Until: 07:44,1.000,
    Until: 13:03,0.000,
    Until: 13:05,1.000,
    Until: 13:50,0.048,
    Until: 13:55,1.000,
    Until: 16:51,0.000,
    Until: 16:53,1.000,
    Until: 17:38,0.048,
    Until: 17:43,1.000,
    Until: 24:00,0.000,
    Through: 2/28,
    For: AllDays,
    Until: 24:00,0.000,
    Through: 3/1,
    For: AllDays,
    Until: 24:00,0.000,
    Through: 3/2,
    For: AllDays,
    Until: 02:17,0.000,
    Until: 02:19,1.000,
    Until: 03:04,0.048,
    Until: 03:09,1.000,
    Until: 08:25,0.000,
    Until: 08:27,1.000,
    Until: 09:12,0.048,
    Until: 09:17,1.000,
    Until: 10:19,0.000,
    Until: 10:21,1.000,
    Until: 11:06,0.048,
    Until: 11:11,1.000,
    Until: 24:00,0.000,
    Through: 3/3,
    For: AllDays,
    Until: 03:19,0.000,
    Until: 03:21,1.000,
    Until: 04:06,0.048,
    Until: 04:11,1.000,
    Until: 04:12,0.000,
    Until: 04:14,1.000,
    Until: 04:59,0.048,
    Until: 05:04,1.000,
    Until: 07:44,0.000,
    Until: 07:46,1.000,
    Until: 08:31,0.048,
    Until: 08:36,1.000,
    Until: 13:21,0.000,
    Until: 13:23,1.000,
    Until: 14:08,0.048,
    Until: 14:13,1.000,
    Until: 24:00,0.000,
    Through: 3/4,
    For: AllDays,
    Until: 01:40,0.000,
    Until: 01:42,1.000,
    Until: 02:27,0.048,
    Until: 02:32,1.000,
    Until: 03:06,0.000,
    Until: 03:08,1.000,
    Until: 03:53,0.048,
    Until: 03:58,1.000,
    Until: 11:25,0.000,
    Until: 11:27,1.000,
    Until: 12:12,0.048,
    Until: 12:17,1.000,
    Until: 12:26,0.000,
    Until: 12:28,1.000,
    Until: 13:13,0.048,
    Until: 13:18,1.000,
    Until: 24:00,0.000,
    Through: 3/5,
    For: AllDays,
    Until: 01:53,0.000,
    Until: 01:55,1.000,
    Until: 02:40,0.048,
    Until: 02:45,1.000,
    Until: 03:33,0.000,
    Until: 03:35,1.000,
    Until: 04:20,0.048,
    Until: 04:25,1.000,
    Until: 06:02,0.000,
    Until: 06:04,1.000,
    Until: 06:49,0.048,
    Until: 06:54,1.000,
    Until: 12:23,0.000,
    Until: 12:25,1.000,
    Until: 13:10,0.048,
    Until: 13:15,1.000,
    Until: 14:14,0.000,
    Until: 14:16,1.000,
    Until: 15:01,0.048,
    Until: 15:06,1.000,
    Until: 16:37,0.000,
    Until: 16:39,1.000,
    Until: 17:24,0.048,
    Until: 17:29,1.000,
    Until: 24:00,0.000,
    Through: 3/6,
    For: AllDays,
    Until: 01:32,0.000,
    Until: 01:34,1.000,
    Until: 02:19,0.048,
    Until: 02:24,1.000,
    Until: 02:33,0.000,
    Until: 02:35,1.000,
    Until: 03:20,0.048,
    Until: 03:25,1.000,
    Until: 07:13,0.000,
    Until: 07:15,1.000,
    Until: 08:00,0.048,
    Until: 08:05,1.000,
    Until: 11:39,0.000,
    Until: 11:41,1.000,
    Until: 12:26,0.048,
    Until: 12:31,1.000,
    Until: 12:35,0.000,
    Until: 12:37,1.000,
    Until: 13:22,0.048,
    Until: 13:27,1.000,
    Until: 24:00,0.000,
    Through: 3/7,
    For: AllDays,
    Until: 24:00,0.000,
    Through: 3/8,
    For: AllDays,
    Until: 24:00,0.000,
    Through: 3/9,
    For: AllDays,
    Until: 01:40,0.000,
    Until: 01:42,1.000,
    Until: 02:27,0.048,
    Until: 02:32,1.000,
    Until: 02:41,0.000,
    Until: 02:43,1.000,
    Until: 03:28,0.048,
    Until: 03:33,1.000,
    Until: 08:08,0.000,
    Until: 08:10,1.000,
    Until: 08:55,0.048,
    Until: 09:00,1.000,
    Until: 11:30,0.000,
    Until: 11:32,1.000,
    Until: 12:17,0.048,
    Until: 12:22,1.000,
    Until: 12:26,0.000,
    Until: 12:28,1.000,
    Until: 13:13,0.048,
    Until: 13:18,1.000,
    Until: 16:23,0.000,
    Until: 16:25,1.000,
    Until: 17:10,0.048,
    Until: 17:15,1.000,
    Until: 24:00,0.000,
    Through: 3/10,
    For: AllDays,
    Until: 03:30,0.000,
    Until: 03:32,1.000,
    Until: 04:17,0.048,
    Until: 04:22,1.000,
    Until: 07:10,0.000,
    Until: 07:12,1.000,
    Until: 07:57,0.048,
    Until: 08:02,1.000,
    Until: 13:11,0.000,
    Until: 13:13,1.000,
    Until: 13:58,0.048,
    Until: 14:03,1.000,
    Until: 24:00,0.000,
    Through: 3/11,
    For: AllDays,
    Until: 03:02,0.000,
    Until: 03:04,1.000,
    Until: 03:49,0.048,
    Until: 03:54,1.000,
    Until: 04:13,0.000,
    Until: 04:15,1.000,
    Until: 05:00,0.048,
    Until: 05:05,1.000,
    Until: 05:24,0.000,
    Until: 05:26,1.000,
    Until: 06:11,0.048,
    Until: 06:16,1.000,
    Until: 11:18,0.000,
    Until: 11:20,1.000,
    Until: 12:05,0.048,
    Until: 12:10,1.000,
    Until: 24:00,0.000,
    Through: 3/12,
    For: AllDays,
    Until: 00:44,0.000,
    Until: 00:46,1.000,
    Until: 01:31,0.048,
    Until: 01:36,1.000,
    Until: 02:11,0.000,
    Until: 02:13,1.000,
    Until: 02:58,0.048,
    Until: 03:03,1.000,
    Until: 11:30,0.000,
    Until: 11:32,1.000,
    Until: 12:17,0.048,
    Until: 12:22,1.000,
    Until: 24:00,0.000,
    Through: 3/13,
    For: AllDays,
    Until: 02:35,0.000,
    Until: 02:37,1.000,
    Until: 03:22,0.048,
    Until: 03:27,1.000,
    Until: 07:08,0.000,
    Until: 07:10,1.000,
    Until: 07:55,0.048,
    Until: 08:00,1.000,
    Until: 11:35,0.000,
    Until: 11:37,1.000,
    Until: 12:22,0.048,
    Until: 12:27,1.000,
    Until: 16:54,0.000,
    Until: 16:56,1.000,
    Until: 17:41,0.048,
    Until: 17:46,1.000,
    Until: 24:00,0.000,
    Through: 3/14,
    For: AllDays,
    Until: 24:00,0.000,
    Through: 3/15,
    For: AllDays,
    Until: 24:00,0.000,
    Through: 3/16,
    For: AllDays,
    Until: 02:00,0.000,
    Until: 02:02,1.000,
    Until: 02:47,0.048,
    Until: 02:52,1.000,
    Until: 06:06,0.000,
    Until: 06:08,1.000,
    Until: 06:53,0.048,
    Until: 06:58,1.000,
    Until: 10:51,0.000,
    Until: 10:53,1.000,
    Until: 11:38,0.048,
    Until: 11:43,1.000,
    Until: 24:00,0.000,
    Through: 3/17,
    For: AllDays,
    Until: 01:06,0.000,
    Until: 01:08,1.000,
    Until: 01:53,0.048,
    Until: 01:58,1.000,
    Until: 02:56,0.000,
    Until: 02:58,1.000,
    Until: 03:43,0.048,
    Until: 03:48,1.000,
    Until: 12:32,0.000,
    Until: 12:34,1.000,
    Until: 13:19,0.048,
    Until: 13:24,1.000,
    Until: 24:00,0.000,
    Through: 3/18,
    For: AllDays,
    Until: 02:25,0.000,
    Until: 02:27,1.000,
    Until: 03:12,0.048,
    Until: 03:17,1.000,
    Until: 11:53,0.000,
    Until: 11:55,1.000,
    Until: 12:40,0.048,
    Until: 12:45,1.000,
    Until: 13:08,0.000,
    Until: 13:10,1.000,
    Until: 13:55,0.048,
    Until: 14:00,1.000,
    Until: 24:00,0.000,
    Through: 3/19,
    For: AllDays,
    Until: 00:33,0.000,
    Until: 00:35,1.000,
    Until: 01:20,0.048,
    Until: 01:25,1.000,
    Until: 02:04,0.000,
    Until: 02:06,1.000,
    Until: 02:51,0.048,
    Until: 02:56,1.000,
    Until: 08:07,0.000,
    Until: 08:09,1.000,
    Until: 08:54,0.048,
    Until: 08:59,1.000,
    Until: 12:27,0.000,
    Until: 12:29,1.000,
    Until: 13:14,0.048,
    Until: 13:19,1.000,
    Until: 24:00,0.000,
    Through: 3/20,
    For: AllDays,
    Until: 01:24,0.000,
    Until: 01:26,1.000,
    Until: 02:11,0.048,
    Until: 02:16,1.000,
    Until: 09:21,0.000,
    Until: 09:23,1.000,
    Until: 10:08,0.048,
    Until: 10:13,1.000,
    Until: 13:31,0.000,
    Until: 13:33,1.000,
    Until: 14:18,0.048,
    Until: 14:23,1.000,
    Until: 17:20,0.000,
    Until: 17:22,1.000,
    Until: 18:07,0.048,
    Until: 18:12,1.000,
    Until: 24:00,0.000,
    Through: 3/21,
    For: AllDays,
    Until: 24:00,0.000,
    Through: 3/22,
    For: AllDays,
    Until: 24:00,0.000,
    Through: 3/23,
    For: AllDays,
    Until: 17:07,0.000,
    Until: 17:09,1.000,
    Until: 17:54,0.048,
    Until: 17:59,1.000,
    Until: 24:00,0.000,
    Through: 3/24,
    For: AllDays,
    Until: 02:14,0.000,
    Until: 02:16,1.000,
    Until: 03:01,0.048,
    Until: 03:06,1.000,
    Until: 03:07,0.000,
    Until: 03:09,1.000,
    Until: 03:54,0.048,
    Until: 03:59,1.000,
    Until: 04:26,0.000,
    Until: 04:28,1.000,
    Until: 05:13,0.048,
    Until: 05:18,1.000,
    Until: 07:06,0.000,
    Until: 07:08,1.000,
    Until: 07:53,0.048,
    Until: 07:58,1.000,
    Until: 12:13,0.000,
    Until: 12:15,1.000,
    Until: 13:00,0.048,
    Until: 13:05,1.000,
    Until: 13:07,0.000,
    Until: 13:09,1.000,
    Until: 13:54,0.048,
    Until: 13:59,1.000,
    Until: 24:00,0.000,
    Through: 3/25,
    For: AllDays,
    Until: 12:54,0.000,
    Until: 12:56,1.000,
    Until: 13:41,0.048,
    Until: 13:46,1.000,
    Until: 24:00,0.000,
    Through: 3/26,
    For: AllDays,
    Until: 02:10,0.000,
    Until: 02:12,1.000,
    Until: 02:57,0.048,
    Until: 03:02,1.000,
    Until: 03:17,0.000,
    Until: 03:19,1.000,
    Until: 04:04,0.048,
    Until: 04:09,1.000,
    Until: 11:08,0.000,
    Until: 11:10,1.000,
    Until: 11:55,0.048,
    Until: 12:00,1.000,
    Until: 13:23,0.000,
    Until: 13:25,1.000,
    Until: 14:10,0.048,
    Until: 14:15,1.000,
    Until: 24:00,0.000,
    Through: 3/27,
    For: AllDays,
    Until: 03:52,0.000,
    Until: 03:54,1.000,
    Until: 04:39,0.048,
    Until: 04:44,1.000,
    Until: 07:42,0.000,
    Until: 07:44,1.000,
    Until: 08:29,0.048,
    Until: 08:34,1.000,
    Until: 11:52,0.000,
    Until: 11:54,1.000,
    Until: 12:39,0.048,
    Until: 12:44,1.000,
    Until: 16:51,0.000,
    Until: 16:53,1.000,
    Until: 17:38,0.048,
    Until: 17:43,1.000,
    Until: 24:00,0.000,
    Through: 3/28,
    For: AllDays,
    Until: 24:00,0.000,
    Through: 3/29,
    For: AllDays,
    Until: 24:00,0.000,
    Through: 3/30,
    For: AllDays,
    Until: 01:22,0.000,
    Until: 01:24,1.000,
    Until: 02:09,0.048,
    Until: 02:14,1.000,
    Until: 02:15,0.000,
    Until: 02:17,1.000,
    Until: 03:02,0.048,
    Until: 03:07,1.000,
    Until: 07:56,0.000,
    Until: 07:58,1.000,
    Until: 08:43,0.048,
    Until: 08:48,1.000,
    Until: 11:18,0.000,
    Until: 11:20,1.000,
    Until: 12:05,0.048,
    Until: 12:10,1.000,
    Until: 24:00,0.000,
    Through: 3/31,
    For: AllDays,
    Until: 01:28,0.000,
    Until: 01:30,1.000,
    Until: 02:15,0.048,
    Until: 02:20,1.000,
    Until: 02:27,0.000,
    Until: 02:29,1.000,
    Until: 03:14,0.048,
    Until: 03:19,1.000,
    Until: 07:18,0.000,
    Until: 07:20,1.000,
    Until: 08:05,0.048,
    Until: 08:10,1.000,
    Until: 10:42,0.000,
    Until: 10:44,1.000,
    Until: 11:29,0.048,
    Until: 11:34,1.000,
    Until: 12:09,0.000,
    Until: 12:11,1.000,
    Until: 12:56,0.048,
    Until: 13:01,1.000,
    Until: 24:00,0.000,
    Through: 4/1,
    For: AllDays,
    Until: 03:50,0.000,
    Until: 03:52,1.000,
    Until: 04:37,0.048,
    Until: 04:42,1.000,
    Until: 04:43,0.000,
    Until: 04:45,1.000,
    Until: 05:30,0.048,
    Until: 05:35,1.000,
    Until: 05:41,0.000,
    Until: 05:43,1.000,
    Until: 06:28,0.048,
    Until: 06:33,1.000,
    Until: 11:31,0.000,
    Until: 11:33,1.000,
    Until: 12:18,0.048,
    Until: 12:23,1.000,
    Until: 17:19,0.000,
    Until: 17:21,1.000,
    Until: 18:06,0.048,
    Until: 18:11,1.000,
    Until: 24:00,0.000,
    Through: 4/2,
    For: AllDays,
    Until: 01:21,0.000,
    Until: 01:23,1.000,
    Until: 02:08,0.048,
    Until: 02:13,1.000,
    Until: 03:43,0.000,
    Until: 03:45,1.000,
    Until: 04:30,0.048,
    Until: 04:35,1.000,
    Until: 11:45,0.000,
    Until: 11:47,1.000,
    Until: 12:32,0.048,
    Until: 12:37,1.000,
    Until: 13:02,0.000,
    Until: 13:04,1.000,
    Until: 13:49,0.048,
    Until: 13:54,1.000,
    Until: 24:00,0.000,
    Through: 4/3,
    For: AllDays,
    Until: 01:46,0.000,
    Until: 01:48,1.000,
    Until: 02:33,0.048,
    Until: 02:38,1.000,
    Until: 03:55,0.000,
    Until: 03:57,1.000,
    Until: 04:42,0.048,
    Until: 04:47,1.000,
    Until: 07:05,0.000,
    Until: 07:07,1.000,
    Until: 07:52,0.048,
    Until: 07:57,1.000,
    Until: 11:18,0.000,
    Until: 11:20,1.000,
    Until: 12:05,0.048,
    Until: 12:10,1.000,
    Until: 13:19,0.000,
    Until: 13:21,1.000,
    Until: 14:06,0.048,
    Until: 14:11,1.000,
    Until: 24:00,0.000,
    Through: 4/4,
    For: AllDays,
    Until: 24:00,0.000,
    Through: 4/5,
    For: AllDays,
    Until: 24:00,0.000,
    Through: 4/6,
    For: AllDays,
    Until: 01:21,0.000,
    Until: 01:23,1.000,
    Until: 02:08,0.048,
    Until: 02:13,1.000,
    Until: 02:14,0.000,
    Until: 02:16,1.000,
    Until: 03:01,0.048,
    Until: 03:06,1.000,
    Until: 04:08,0.000,
    Until: 04:10,1.000,
    Until: 04:55,0.048,
    Until: 05:00,1.000,
    Until: 07:25,0.000,
    Until: 07:27,1.000,
    Until: 08:12,0.048,
    Until: 08:17,1.000,
    Until: 10:49,0.000,
    Until: 10:51,1.000,
    Until: 11:36,0.048,
    Until: 11:41,1.000,
    Until: 11:57,0.000,
    Until: 11:59,1.000,
    Until: 12:44,0.048,
    Until: 12:49,1.000,
    Until: 24:00,0.000,
    Through: 4/7,
    For: AllDays,
    Until: 00:33,0.000,
    Until: 00:35,1.000,
    Until: 01:20,0.048,
    Until: 01:25,1.000,
    Until: 01:44,0.000,
    Until: 01:46,1.000,
    Until: 02:31,0.048,
    Until: 02:36,1.000,
    Until: 02:44,0.000,
    Until: 02:46,1.000,
    Until: 03:31,0.048,
    Until: 03:36,1.000,
    Until: 11:04,0.000,
    Until: 11:06,1.000,
    Until: 11:51,0.048,
    Until: 11:56,1.000,
    Until: 12:03,0.000,
    Until: 12:05,1.000,
    Until: 12:50,0.048,
    Until: 12:55,1.000,
    Until: 24:00,0.000,
    Through: 4/8,
    For: AllDays,
    Until: 01:19,0.000,
    Until: 01:21,1.000,
    Until: 02:06,0.048,
    Until: 02:11,1.000,
    Until: 02:28,0.000,
    Until: 02:30,1.000,
    Until: 03:15,0.048,
    Until: 03:20,1.000,
    Until: 03:36,0.000,
    Until: 03:38,1.000,
    Until: 04:23,0.048,
    Until: 04:28,1.000,
    Until: 08:09,0.000,
    Until: 08:11,1.000,
    Until: 08:56,0.048,
    Until: 09:01,1.000,
    Until: 24:00,0.000,
    Through: 4/9,
    For: AllDays,
    Until: 01:19,0.000,
    Until: 01:21,1.000,
    Until: 02:06,0.048,
    Until: 02:11,1.000,
    Until: 02:58,0.000,
    Until: 03:00,1.000,
    Until: 03:45,0.048,
    Until: 03:50,1.000,
    Until: 04:34,0.000,
    Until: 04:36,1.000,
    Until: 05:21,0.048,
    Until: 05:26,1.000,
    Until: 06:46,0.000,
    Until: 06:48,1.000,
    Until: 07:33,0.048,
    Until: 07:38,1.000,
    Until: 12:28,0.000,
    Until: 12:30,1.000,
    Until: 13:15,0.048,
    Until: 13:20,1.000,
    Until: 24:00,0.000,
    Through: 4/10,
    For: AllDays,
    Until: 00:39,0.000,
    Until: 00:41,1.000,
    Until: 01:26,0.048,
    Until: 01:31,1.000,
    Until: 02:24,0.000,
    Until: 02:26,1.000,
    Until: 03:11,0.048,
    Until: 03:16,1.000,
    Until: 03:21,0.000,
    Until: 03:23,1.000,
    Until: 04:08,0.048,
    Until: 04:13,1.000,
    Until: 07:52,0.000,
    Until: 07:54,1.000,
    Until: 08:39,0.048,
    Until: 08:44,1.000,
    Until: 09:20,0.000,
    Until: 09:22,1.000,
    Until: 10:07,0.048,
    Until: 10:12,1.000,
    Until: 12:55,0.000,
    Until: 12:57,1.000,
    Until: 13:42,0.048,
    Until: 13:47,1.000,
    Until: 16:39,0.000,
    Until: 16:41,1.000,
    Until: 17:26,0.048,
    Until: 17:31,1.000,
    Until: 24:00,0.000,
    Through: 4/11,
    For: AllDays,
    Until: 24:00,0.000,
    Through: 4/12,
    For: AllDays,
    Until: 24:00,0.000,
    Through: 4/13,
    For: AllDays,
    Until: 02:16,0.000,
    Until: 02:18,1.000,
    Until: 03:03,0.048,
    Until: 03:08,1.000,
    Until: 03:09,0.000,
    Until: 03:11,1.000,
    Until: 03:56,0.048,
    Until: 04:01,1.000,
    Until: 05:48,0.000,
    Until: 05:50,1.000,
    Until: 06:35,0.048,
    Until: 06:40,1.000,
    Until: 12:39,0.000,
    Until: 12:41,1.000,
    Until: 13:26,0.048,
    Until: 13:31,1.000,
    Until: 16:24,0.000,
    Until: 16:26,1.000,
    Until: 17:11,0.048,
    Until: 17:16,1.000,
    Until: 24:00,0.000,
    Through: 4/14,
    For: AllDays,
    Until: 01:15,0.000,
    Until: 01:17,1.000,
    Until: 02:02,0.048,
    Until: 02:07,1.000,
    Until: 03:27,0.000,
    Until: 03:29,1.000,
    Until: 04:14,0.048,
    Until: 04:19,1.000,
    Until: 08:47,0.000,
    Until: 08:49,1.000,
    Until: 09:34,0.048,
    Until: 09:39,1.000,
    Until: 12:17,0.000,
    Until: 12:19,1.000,
    Until: 13:04,0.048,
    Until: 13:09,1.000,
    Until: 13:48,0.000,
    Until: 13:50,1.000,
    Until: 14:35,0.048,
    Until: 14:40,1.000,
    Until: 24:00,0.000,
    Through: 4/15,
    For: AllDays,
    Until: 00:29,0.000,
    Until: 00:31,1.000,
    Until: 01:16,0.048,
    Until: 01:21,1.000,
    Until: 02:14,0.000,
    Until: 02:16,1.000,
    Until: 03:01,0.048,
    Until: 03:06,1.000,
    Until: 03:08,0.000,
    Until: 03:10,1.000,
    Until: 03:55,0.048,
    Until: 04:00,1.000,
    Until: 04:22,0.000,
    Until: 04:24,1.000,
    Until: 05:09,0.048,
    Until: 05:14,1.000,
    Until: 07:11,0.000,
    Until: 07:13,1.000,
    Until: 07:58,0.048,
    Until: 08:03,1.000,
    Until: 12:18,0.000,
    Until: 12:20,1.000,
    Until: 13:05,0.048,
    Until: 13:10,1.000,
    Until: 13:20,0.000,
    Until: 13:22,1.000,
    Until: 14:07,0.048,
    Until: 14:12,1.000,
    Until: 16:25,0.000,
    Until: 16:27,1.000,
    Until: 17:12,0.048,
    Until: 17:17,1.000,
    Until: 17:22,0.000,
    Until: 17:24,1.000,
    Until: 18:09,0.048,
    Until: 18:14,1.000,
    Until: 24:00,0.000,
    Through: 4/16,
    For: AllDays,
    Until: 03:24,0.000,
    Until: 03:26,1.000,
    Until: 04:11,0.048,
    Until: 04:16,1.000,
    Until: 04:17,0.000,
    Until: 04:19,1.000,
    Until: 05:04,0.048,
    Until: 05:09,1.000,
    Until: 08:12,0.000,
    Until: 08:14,1.000,
    Until: 08:59,0.048,
    Until: 09:04,1.000,
    Until: 11:28,0.000,
    Until: 11:30,1.000,
    Until: 12:15,0.048,
    Until: 12:20,1.000,
    Until: 16:40,0.000,
    Until: 16:42,1.000,
    Until: 17:27,0.048,
    Until: 17:32,1.000,
    Until: 24:00,0.000,
    Through: 4/17,
    For: AllDays,
    Until: 01:36,0.000,
    Until: 01:38,1.000,
    Until: 02:23,0.048,
    Until: 02:28,1.000,
    Until: 03:35,0.000,
    Until: 03:37,1.000,
    Until: 04:22,0.048,
    Until: 04:27,1.000,
    Until: 10:55,0.000,
    Until: 10:57,1.000,
    Until: 11:42,0.048,
    Until: 11:47,1.000,
    Until: 16:43,0.000,
    Until: 16:45,1.000,
    Until: 17:30,0.048,
    Until: 17:35,1.000,
    Until: 24:00,0.000,
    Through: 4/18,
    For: AllDays,
    Until: 24:00,0.000,
    Through: 4/19,
    For: AllDays,
    Until: 24:00,0.000,
    Through: 4/20,
    For: AllDays,
    Until: 01:15,0.000,
    Until: 01:17,1.000,
    Until: 02:02,0.048,
    Until: 02:07,1.000,
    Until: 04:05,0.000,
    Until: 04:07,1.000,
    Until: 04:52,0.048,
    Until: 04:57,1.000,
    Until: 05:55,0.000,
    Until: 05:57,1.000,
    Until: 06:42,0.048,
    Until: 06:47,1.000,
    Until: 11:55,0.000,
    Until: 11:57,1.000,
    Until: 12:42,0.048,
    Until: 12:47,1.000,
    Until: 17:33,0.000,
    Until: 17:35,1.000,
    Until: 18:20,0.048,
    Until: 18:25,1.000,
    Until: 24:00,0.000,
    Through: 4/21,
    For: AllDays,
    Until: 02:37,0.000,
    Until: 02:39,1.000,
    Until: 03:24,0.048,
    Until: 03:29,1.000,
    Until: 04:32,0.000,
    Until: 04:34,1.000,
    Until: 05:19,0.048,
    Until: 05:24,1.000,
    Until: 05:32,0.000,
    Until: 05:34,1.000,
    Until: 06:19,0.048,
    Until: 06:24,1.000,
    Until: 07:07,0.000,
    Until: 07:09,1.000,
    Until: 07:54,0.048,
    Until: 07:59,1.000,
    Until: 12:42,0.000,
    Until: 12:44,1.000,
    Until: 13:29,0.048,
    Until: 13:34,1.000,
    Until: 13:35,0.000,
    Until: 13:37,1.000,
    Until: 14:22,0.048,
    Until: 14:27,1.000,
    Until: 16:42,0.000,
    Until: 16:44,1.000,
    Until: 17:29,0.048,
    Until: 17:34,1.000,
    Until: 24:00,0.000,
    Through: 4/22,
    For: AllDays,
    Until: 01:58,0.000,
    Until: 02:00,1.000,
    Until: 02:45,0.048,
    Until: 02:50,1.000,
    Until: 03:50,0.000,
    Until: 03:52,1.000,
    Until: 04:37,0.048,
    Until: 04:42,1.000,
    Until: 10:21,0.000,
    Until: 10:23,1.000,
    Until: 11:08,0.048,
    Until: 11:13,1.000,
    Until: 11:57,0.000,
    Until: 11:59,1.000,
    Until: 12:44,0.048,
    Until: 12:49,1.000,
    Until: 17:26,0.000,
    Until: 17:28,1.000,
    Until: 18:13,0.048,
    Until: 18:18,1.000,
    Until: 24:00,0.000,
    Through: 4/23,
    For: AllDays,
    Until: 03:37,0.000,
    Until: 03:39,1.000,
    Until: 04:24,0.048,
    Until: 04:29,1.000,
    Until: 07:01,0.000,
    Until: 07:03,1.000,
    Until: 07:48,0.048,
    Until: 07:53,1.000,
    Until: 12:10,0.000,
    Until: 12:12,1.000,
    Until: 12:57,0.048,
    Until: 13:02,1.000,
    Until: 16:32,0.000,
    Until: 16:34,1.000,
    Until: 17:19,0.048,
    Until: 17:24,1.000,
    Until: 24:00,0.000,
    Through: 4/24,
    For: AllDays,
    Until: 01:09,0.000,
    Until: 01:11,1.000,
    Until: 01:56,0.048,
    Until: 02:01,1.000,
    Until: 02:02,0.000,
    Until: 02:04,1.000,
    Until: 02:49,0.048,
    Until: 02:54,1.000,
    Until: 06:02,0.000,
    Until: 06:04,1.000,
    Until: 06:49,0.048,
    Until: 06:54,1.000,
    Until: 11:49,0.000,
    Until: 11:51,1.000,
    Until: 12:36,0.048,
    Until: 12:41,1.000,
    Until: 13:25,0.000,
    Until: 13:27,1.000,
    Until: 14:12,0.048,
    Until: 14:17,1.000,
    Until: 18:46,0.000,
    Until: 18:48,1.000,
    Until: 19:33,0.048,
    Until: 19:38,1.000,
    Until: 24:00,0.000,
    Through: 4/25,
    For: AllDays,
    Until: 24:00,0.000,
    Through: 4/26,
    For: AllDays,
    Until: 24:00,0.000,
    Through: 4/27,
    For: AllDays,
    Until: 01:36,0.000,
    Until: 01:38,1.000,
    Until: 02:23,0.048,
    Until: 02:28,1.000,
    Until: 03:03,0.000,
    Until: 03:05,1.000,
    Until: 03:50,0.048,
    Until: 03:55,1.000,
    Until: 11:21,0.000,
    Until: 11:23,1.000,
    Until: 12:08,0.048,
    Until: 12:13,1.000,
    Until: 12:28,0.000,
    Until: 12:30,1.000,
    Until: 13:15,0.048,
    Until: 13:20,1.000,
    Until: 16:42,0.000,
    Until: 16:44,1.000,
    Until: 17:29,0.048,
    Until: 17:34,1.000,
    Until: 24:00,0.000,
    Through: 4/28,
    For: AllDays,
    Until: 01:57,0.000,
    Until: 01:59,1.000,
    Until: 02:44,0.048,
    Until: 02:49,1.000,
    Until: 02:50,0.000,
    Until: 02:52,1.000,
    Until: 03:37,0.048,
    Until: 03:42,1.000,
    Until: 12:37,0.000,
    Until: 12:39,1.000,
    Until: 13:24,0.048,
    Until: 13:29,1.000,
    Until: 16:52,0.000,
    Until: 16:54,1.000,
    Until: 17:39,0.048,
    Until: 17:44,1.000,
    Until: 24:00,0.000,
    Through: 4/29,
    For: AllDays,
    Until: 00:48,0.000,
    Until: 00:50,1.000,
    Until: 01:35,0.048,
    Until: 01:40,1.000,
    Until: 01:41,0.000,
    Until: 01:43,1.000,
    Until: 02:28,0.048,
    Until: 02:33,1.000,
    Until: 03:07,0.000,
    Until: 03:09,1.000,
    Until: 03:54,0.048,
    Until: 03:59,1.000,
    Until: 06:21,0.000,
    Until: 06:23,1.000,
    Until: 07:08,0.048,
    Until: 07:13,1.000,
    Until: 11:01,0.000,
    Until: 11:03,1.000,
    Until: 11:48,0.048,
    Until: 11:53,1.000,
    Until: 15:10,0.000,
    Until: 15:12,1.000,
    Until: 15:57,0.048,
    Until: 16:02,1.000,
    Until: 24:00,0.000,
    Through: 4/30,
    For: AllDays,
    Until: 01:03,0.000,
    Until: 01:05,1.000,
    Until: 01:50,0.048,
    Until: 01:55,1.000,
    Until: 02:06,0.000,
    Until: 02:08,1.000,
    Until: 02:53,0.048,
    Until: 02:58,1.000,
    Until: 05:56,0.000,
    Until: 05:58,1.000,
    Until: 06:43,0.048,
    Until: 06:48,1.000,
    Until: 07:44,0.000,
    Until: 07:46,1.000,
    Until: 08:31,0.048,
    Until: 08:36,1.000,
    Until: 12:58,0.000,
    Until: 13:00,1.000,
    Until: 13:45,0.048,
    Until: 13:50,1.000,
    Until: 24:00,0.000,
    Through: 5/1,
    For: AllDays,
    Until: 01:24,0.000,
    Until: 01:26,1.000,
    Until: 02:11,0.048,
    Until: 02:16,1.000,
    Until: 02:48,0.000,
    Until: 02:50,1.000,
    Until: 03:35,0.048,
    Until: 03:40,1.000,
    Until: 04:24,0.000,
    Until: 04:26,1.000,
    Until: 05:11,0.048,
    Until: 05:16,1.000,
    Until: 07:20,0.000,
    Until: 07:22,1.000,
    Until: 08:07,0.048,
    Until: 08:12,1.000,
    Until: 10:48,0.000,
    Until: 10:50,1.000,
    Until: 11:35,0.048,
    Until: 11:40,1.000,
    Until: 11:46,0.000,
    Until: 11:48,1.000,
    Until: 12:33,0.048,
    Until: 12:38,1.000,
    Until: 16:22,0.000,
    Until: 16:24,1.000,
    Until: 17:09,0.048,
    Until: 17:14,1.000,
    Until: 24:00,0.000,
    Through: 5/2,
    For: AllDays,
    Until: 24:00,0.000,
    Through: 5/3,
    For: AllDays,
    Until: 24:00,0.000,
    Through: 5/4,
    For: AllDays,
    Until: 02:16,0.000,
    Until: 02:18,1.000,
    Until: 03:03,0.048,
    Until: 03:08,1.000,
    Until: 03:09,0.000,
    Until: 03:11,1.000,
    Until: 03:56,0.048,
    Until: 04:01,1.000,
    Until: 08:53,0.000,
    Until: 08:55,1.000,
    Until: 09:40,0.048,
    Until: 09:45,1.000,
    Until: 11:36,0.000,
    Until: 11:38,1.000,
    Until: 12:23,0.048,
    Until: 12:28,1.000,
    Until: 12:29,0.000,
    Until: 12:31,1.000,
    Until: 13:16,0.048,
    Until: 13:21,1.000,
    Until: 17:27,0.000,
    Until: 17:29,1.000,
    Until: 18:14,0.048,
    Until: 18:19,1.000,
    Until: 24:00,0.000,
    Through: 5/5,
    For: AllDays,
    Until: 01:01,0.000,
    Until: 01:03,1.000,
    Until: 01:48,0.048,
    Until: 01:53,1.000,
    Until: 01:58,0.000,
    Until: 02:00,1.000,
    Until: 02:45,0.048,
    Until: 02:50,1.000,
    Until: 02:51,0.000,
    Until: 02:53,1.000,
    Until: 03:38,0.048,
    Until: 03:43,1.000,
    Until: 06:23,0.000,
    Until: 06:25,1.000,
    Until: 07:10,0.048,
    Until: 07:15,1.000,
    Until: 13:40,0.000,
    Until: 13:42,1.000,
    Until: 14:27,0.048,
    Until: 14:32,1.000,
    Until: 17:16,0.000,
    Until: 17:18,1.000,
    Until: 18:03,0.048,
    Until: 18:08,1.000,
    Until: 24:00,0.000,
    Through: 5/6,
    For: AllDays,
    Until: 00:45,0.000,
    Until: 00:47,1.000,
    Until: 01:32,0.048,
    Until: 01:37,1.000,
    Until: 02:48,0.000,
    Until: 02:50,1.000,
    Until: 03:35,0.048,
    Until: 03:40,1.000,
    Until: 04:10,0.000,
    Until: 04:12,1.000,
    Until: 04:57,0.048,
    Until: 05:02,1.000,
    Until: 07:33,0.000,
    Until: 07:35,1.000,
    Until: 08:20,0.048,
    Until: 08:25,1.000,
    Until: 12:09,0.000,
    Until: 12:11,1.000,
    Until: 12:56,0.048,
    Until: 13:01,1.000,
    Until: 13:19,0.000,
    Until: 13:21,1.000,
    Until: 14:06,0.048,
    Until: 14:11,1.000,
    Until: 24:00,0.000,
    Through: 5/7,
    For: AllDays,
    Until: 02:00,0.000,
    Until: 02:02,1.000,
    Until: 02:47,0.048,
    Until: 02:52,1.000,
    Until: 07:21,0.000,
    Until: 07:23,1.000,
    Until: 08:08,0.048,
    Until: 08:13,1.000,
    Until: 24:00,0.000,
    Through: 5/8,
    For: AllDays,
    Until: 01:03,0.000,
    Until: 01:05,1.000,
    Until: 01:50,0.048,
    Until: 01:55,1.000,
    Until: 02:45,0.000,
    Until: 02:47,1.000,
    Until: 03:32,0.048,
    Until: 03:37,1.000,
    Until: 04:26,0.000,
    Until: 04:28,1.000,
    Until: 05:13,0.048,
    Until: 05:18,1.000,
    Until: 06:56,0.000,
    Until: 06:58,1.000,
    Until: 07:43,0.048,
    Until: 07:48,1.000,
    Until: 11:31,0.000,
    Until: 11:33,1.000,
    Until: 12:18,0.048,
    Until: 12:23,1.000,
    Until: 13:16,0.000,
    Until: 13:18,1.000,
    Until: 14:03,0.048,
    Until: 14:08,1.000,
    Until: 24:00,0.000,
    Through: 5/9,
    For: AllDays,
    Until: 24:00,0.000,
    Through: 5/10,
    For: AllDays,
    Until: 24:00,0.000,
    Through: 5/11,
    For: AllDays,
    Until: 02:37,0.000,
    Until: 02:39,1.000,
    Until: 03:24,0.048,
    Until: 03:29,1.000,
    Until: 05:27,0.000,
    Until: 05:29,1.000,
    Until: 06:14,0.048,
    Until: 06:19,1.000,
    Until: 10:51,0.000,
    Until: 10:53,1.000,
    Until: 11:38,0.048,
    Until: 11:43,1.000,
    Until: 12:02,0.000,
    Until: 12:04,1.000,
    Until: 12:49,0.048,
    Until: 12:54,1.000,
    Until: 16:27,0.000,
    Until: 16:29,1.000,
    Until: 17:14,0.048,
    Until: 17:19,1.000,
    Until: 24:00,0.000,
    Through: 5/12,
    For: AllDays,
    Until: 02:15,0.000,
    Until: 02:17,1.000,
    Until: 03:02,0.048,
    Until: 03:07,1.000,
    Until: 03:34,0.000,
    Until: 03:36,1.000,
    Until: 04:21,0.048,
    Until: 04:26,1.000,
    Until: 07:47,0.000,
    Until: 07:49,1.000,
    Until: 08:34,0.048,
    Until: 08:39,1.000,
    Until: 10:12,0.000,
    Until: 10:14,1.000,
    Until: 10:59,0.048,
    Until: 11:04,1.000,
    Until: 15:03,0.000,
    Until: 15:05,1.000,
    Until: 15:50,0.048,
    Until: 15:55,1.000,
    Until: 24:00,0.000,
    Through: 5/13,
    For: AllDays,
    Until: 03:57,0.000,
    Until: 03:59,1.000,
    Until: 04:44,0.048,
    Until: 04:49,1.000,
    Until: 11:50,0.000,
    Until: 11:52,1.000,
    Until: 12:37,0.048,
    Until: 12:42,1.000,
    Until: 13:36,0.000,
    Until: 13:38,1.000,
    Until: 14:23,0.048,
    Until: 14:28,1.000,
    Until: 15:13,0.000,
    Until: 15:15,1.000,
    Until: 16:00,0.048,
    Until: 16:05,1.000,
    Until: 24:00,0.000,
    Through: 5/14,
    For: AllDays,
    Until: 01:51,0.000,
    Until: 01:53,1.000,
    Until: 02:38,0.048,
    Until: 02:43,1.000,
    Until: 04:19,0.000,
    Until: 04:21,1.000,
    Until: 05:06,0.048,
    Until: 05:11,1.000,
    Until: 08:26,0.000,
    Until: 08:28,1.000,
    Until: 09:13,0.048,
    Until: 09:18,1.000,
    Until: 13:45,0.000,
    Until: 13:47,1.000,
    Until: 14:32,0.048,
    Until: 14:37,1.000,
    Until: 17:06,0.000,
    Until: 17:08,1.000,
    Until: 17:53,0.048,
    Until: 17:58,1.000,
    Until: 24:00,0.000,
    Through: 5/15,
    For: AllDays,
    Until: 02:12,0.000,
    Until: 02:14,1.000,
    Until: 02:59,0.048,
    Until: 03:04,1.000,
    Until: 03:05,0.000,
    Until: 03:07,1.000,
    Until: 03:52,0.048,
    Until: 03:57,1.000,
    Until: 04:20,0.000,
    Until: 04:22,1.000,
    Until: 05:07,0.048,
    Until: 05:12,1.000,
    Until: 05:47,0.000,
    Until: 05:49,1.000,
    Until: 06:34,0.048,
    Until: 06:39,1.000,
    Until: 06:55,0.000,
    Until: 06:57,1.000,
    Until: 07:42,0.048,
    Until: 07:47,1.000,
    Until: 13:41,0.000,
    Until: 13:43,1.000,
    Until: 14:28,0.048,
    Until: 14:33,1.000,
    Until: 24:00,0.000,
    Through: 5/16,
    For: AllDays,
    Until: 24:00,0.000,
    Through: 5/17,
    For: AllDays,
    Until: 24:00,0.000,
    Through: 5/18,
    For: AllDays,
    Until: 01:33,0.000,
    Until: 01:35,1.000,
    Until: 02:20,0.048,
    Until: 02:25,1.000,
    Until: 04:07,0.000,
    Until: 04:09,1.000,
    Until: 04:54,0.048,
    Until: 04:59,1.000,
    Until: 10:55,0.000,
    Until: 10:57,1.000,
    Until: 11:42,0.048,
    Until: 11:47,1.000,
    Until: 12:22,0.000,
    Until: 12:24,1.000,
    Until: 13:09,0.048,
    Until: 13:14,1.000,
    Until: 17:04,0.000,
    Until: 17:06,1.000,
    Until: 17:51,0.048,
    Until: 17:56,1.000,
    Until: 24:00,0.000,
    Through: 5/19,
    For: AllDays,
    Until: 01:32,0.000,
    Until: 01:34,1.000,
    Until: 02:19,0.048,
    Until: 02:24,1.000,
    Until: 02:57,0.000,
    Until: 02:59,1.000,
    Until: 03:44,0.048,
    Until: 03:49,1.000,
    Until: 04:11,0.000,
    Until: 04:13,1.000,
    Until: 04:58,0.048,
    Until: 05:03,1.000,
    Until: 06:25,0.000,
    Until: 06:27,1.000,
    Until: 07:12,0.048,
    Until: 07:17,1.000,
    Until: 13:46,0.000,
    Until: 13:48,1.000,
    Until: 14:33,0.048,
    Until: 14:38,1.000,
    Until: 16:22,0.000,
    Until: 16:24,1.000,
    Until: 17:09,0.048,
    Until: 17:14,1.000,
    Until: 24:00,0.000,
    Through: 5/20,
    For: AllDays,
    Until: 01:23,0.000,
    Until: 01:25,1.000,
    Until: 02:10,0.048,
    Until: 02:15,1.000,
    Until: 03:02,0.000,
    Until: 03:04,1.000,
    Until: 03:49,0.048,
    Until: 03:54,1.000,
    Until: 06:16,0.000,
    Until: 06:18,1.000,
    Until: 07:03,0.048,
    Until: 07:08,1.000,
    Until: 07:21,0.000,
    Until: 07:23,1.000,
    Until: 08:08,0.048,
    Until: 08:13,1.000,
    Until: 11:57,0.000,
    Until: 11:59,1.000,
    Until: 12:44,0.048,
    Until: 12:49,1.000,
    Until: 16:53,0.000,
    Until: 16:55,1.000,
    Until: 17:40,0.048,
    Until: 17:45,1.000,
    Until: 24:00,0.000,
    Through: 5/21,
    For: AllDays,
    Until: 00:44,0.000,
    Until: 00:46,1.000,
    Until: 01:31,0.048,
    Until: 01:36,1.000,
    Until: 02:59,0.000,
    Until: 03:01,1.000,
    Until: 03:46,0.048,
    Until: 03:51,1.000,
    Until: 07:16,0.000,
    Until: 07:18,1.000,
    Until: 08:03,0.048,
    Until: 08:08,1.000,
    Until: 08:43,0.000,
    Until: 08:45,1.000,
    Until: 09:30,0.048,
    Until: 09:35,1.000,
    Until: 13:04,0.000,
    Until: 13:06,1.000,
    Until: 13:51,0.048,
    Until: 13:56,1.000,
    Until: 16:44,0.000,
    Until: 16:46,1.000,
    Until: 17:31,0.048,
    Until: 17:36,1.000,
    Until: 24:00,0.000,
    Through: 5/22,
    For: AllDays,
    Until: 02:04,0.000,
    Until: 02:06,1.000,
    Until: 02:51,0.048,
    Until: 02:56,1.000,
    Until: 02:59,0.000,
    Until: 03:01,1.000,
    Until: 03:46,0.048,
    Until: 03:51,1.000,
    Until: 03:52,0.000,
    Until: 03:54,1.000,
    Until: 04:39,0.048,
    Until: 04:44,1.000,
    Until: 06:57,0.000,
    Until: 06:59,1.000,
    Until: 07:44,0.048,
    Until: 07:49,1.000,
    Until: 11:11,0.000,
    Until: 11:13,1.000,
    Until: 11:58,0.048,
    Until: 12:03,1.000,
    Until: 12:54,0.000,
    Until: 12:56,1.000,
    Until: 13:41,0.048,
    Until: 13:46,1.000,
    Until: 24:00,0.000,
    Through: 5/23,
    For: AllDays,
    Until: 24:00,0.000,
    Through: 5/24,
    For: AllDays,
    Until: 24:00,0.000,
    Through: 5/25,
    For: AllDays,
    Until: 01:48,0.000,
    Until: 01:50,1.000,
    Until: 02:35,0.048,
    Until: 02:40,1.000,
    Until: 03:54,0.000,
    Until: 03:56,1.000,
    Until: 04:41,0.048,
    Until: 04:46,1.000,
    Until: 06:19,0.000,
    Until: 06:21,1.000,
    Until: 07:06,0.048,
    Until: 07:11,1.000,
    Until: 12:49,0.000,
    Until: 12:51,1.000,
    Until: 13:36,0.048,
    Until: 13:41,1.000,
    Until: 24:00,0.000,
    Through: 5/26,
    For: AllDays,
    Until: 01:11,0.000,
    Until: 01:13,1.000,
    Until: 01:58,0.048,
    Until: 02:03,1.000,
    Until: 02:04,0.000,
    Until: 02:06,1.000,
    Until: 02:51,0.048,
    Until: 02:56,1.000,
    Until: 02:57,0.000,
    Until: 02:59,1.000,
    Until: 03:44,0.048,
    Until: 03:49,1.000,
    Until: 08:00,0.000,
    Until: 08:02,1.000,
    Until: 08:47,0.048,
    Until: 08:52,1.000,
    Until: 13:04,0.000,
    Until: 13:06,1.000,
    Until: 13:51,0.048,
    Until: 13:56,1.000,
    Until: 24:00,0.000,
    Through: 5/27,
    For: AllDays,
    Until: 01:25,0.000,
    Until: 01:27,1.000,
    Until: 02:12,0.048,
    Until: 02:17,1.000,
    Until: 02:18,0.000,
    Until: 02:20,1.000,
    Until: 03:05,0.048,
    Until: 03:10,1.000,
    Until: 03:22,0.000,
    Until: 03:24,1.000,
    Until: 04:09,0.048,
    Until: 04:14,1.000,
    Until: 06:36,0.000,
    Until: 06:38,1.000,
    Until: 07:23,0.048,
    Until: 07:28,1.000,
    Until: 11:31,0.000,
    Until: 11:33,1.000,
    Until: 12:18,0.048,
    Until: 12:23,1.000,
    Until: 18:29,0.000,
    Until: 18:31,1.000,
    Until: 19:16,0.048,
    Until: 19:21,1.000,
    Until: 24:00,0.000,
    Through: 5/28,
    For: AllDays,
    Until: 02:55,0.000,
    Until: 02:57,1.000,
    Until: 03:42,0.048,
    Until: 03:47,1.000,
    Until: 03:48,0.000,
    Until: 03:50,1.000,
    Until: 04:35,0.048,
    Until: 04:40,1.000,
    Until: 04:41,0.000,
    Until: 04:43,1.000,
    Until: 05:28,0.048,
    Until: 05:33,1.000,
    Until: 11:52,0.000,
    Until: 11:54,1.000,
    Until: 12:39,0.048,
    Until: 12:44,1.000,
    Until: 12:45,0.000,
    Until: 12:47,1.000,
    Until: 13:32,0.048,
    Until: 13:37,1.000,
    Until: 17:07,0.000,
    Until: 17:09,1.000,
    Until: 17:54,0.048,
    Until: 17:59,1.000,
    Until: 24:00,0.000,
    Through: 5/29,
    For: AllDays,
    Until: 03:42,0.000,
    Until: 03:44,1.000,
    Until: 04:29,0.048,
    Until: 04:34,1.000,
    Until: 08:41,0.000,
    Until: 08:43,1.000,
    Until: 09:28,0.048,
    Until: 09:33,1.000,
    Until: 12:20,0.000,
    Until: 12:22,1.000,
    Until: 13:07,0.048,
    Until: 13:12,1.000,
    Until: 13:43,0.000,
    Until: 13:45,1.000,
    Until: 14:30,0.048,
    Until: 14:35,1.000,
    Until: 24:00,0.000,
    Through: 5/30,
    For: AllDays,
    Until: 24:00,0.000,
    Through: 5/31,
    For: AllDays,
    Until: 24:00,0.000,
    Through: 6/1,
    For: AllDays,
    Until: 01:23,0.000,
    Until: 01:25,1.000,
    Until: 02:10,0.048,
    Until: 02:15,1.000,
    Until: 04:11,0.000,
    Until: 04:13,1.000,
    Until: 04:58,0.048,
    Until: 05:03,1.000,
    Until: 24:00,0.000,
    Through: 6/2,
    For: AllDays,
    Until: 01:46,0.000,
    Until: 01:48,1.000,
    Until: 02:33,0.048,
    Until: 02:38,1.000,
    Until: 07:08,0.000,
    Until: 07:10,1.000,
    Until: 07:55,0.048,
    Until: 08:00,1.000,
    Until: 24:00,0.000,
    Through: 6/3,
    For: AllDays,
    Until: 00:38,0.000,
    Until: 00:40,1.000,
    Until: 01:25,0.048,
    Until: 01:30,1.000,
    Until: 01:33,0.000,
    Until: 01:35,1.000,
    Until: 02:20,0.048,
    Until: 02:25,1.000,
    Until: 07:25,0.000,
    Until: 07:27,1.000,
    Until: 08:12,0.048,
    Until: 08:17,1.000,
    Until: 11:45,0.000,
    Until: 11:47,1.000,
    Until: 12:32,0.048,
    Until: 12:37,1.000,
    Until: 12:57,0.000,
    Until: 12:59,1.000,
    Until: 13:44,0.048,
    Until: 13:49,1.000,
    Until: 24:00,0.000,
    Through: 6/4,
    For: AllDays,
    Until: 02:16,0.000,
    Until: 02:18,1.000,
    Until: 03:03,0.048,
    Until: 03:08,1.000,
    Until: 03:09,0.000,
    Until: 03:11,1.000,
    Until: 03:56,0.048,
    Until: 04:01,1.000,
    Until: 09:14,0.000,
    Until: 09:16,1.000,
    Until: 10:01,0.048,
    Until: 10:06,1.000,
    Until: 11:18,0.000,
    Until: 11:20,1.000,
    Until: 12:05,0.048,
    Until: 12:10,1.000,
    Until: 24:00,0.000,
    Through: 6/5,
    For: AllDays,
    Until: 01:27,0.000,
    Until: 01:29,1.000,
    Until: 02:14,0.048,
    Until: 02:19,1.000,
    Until: 02:27,0.000,
    Until: 02:29,1.000,
    Until: 03:14,0.048,
    Until: 03:19,1.000,
    Until: 08:46,0.000,
    Until: 08:48,1.000,
    Until: 09:33,0.048,
    Until: 09:38,1.000,
    Until: 11:24,0.000,
    Until: 11:26,1.000,
    Until: 12:11,0.048,
    Until: 12:16,1.000,
    Until: 24:00,0.000,
    Through: 6/6,
    For: AllDays,
    Until: 24:00,0.000,
    Through: 6/7,
    For: AllDays,
    Until: 24:00,0.000,
    Through: 6/8,
    For: AllDays,
    Until: 02:15,0.000,
    Until: 02:17,1.000,
    Until: 03:02,0.048,
    Until: 03:07,1.000,
    Until: 06:09,0.000,
    Until: 06:11,1.000,
    Until: 06:56,0.048,
    Until: 07:01,1.000,
    Until: 07:48,0.000,
    Until: 07:50,1.000,
    Until: 08:35,0.048,
    Until: 08:40,1.000,
    Until: 18:07,0.000,
    Until: 18:09,1.000,
    Until: 18:54,0.048,
    Until: 18:59,1.000,
    Until: 24:00,0.000,
    Through: 6/9,
    For: AllDays,
    Until: 03:47,0.000,
    Until: 03:49,1.000,
    Until: 04:34,0.048,
    Until: 04:39,1.000,
    Until: 13:43,0.000,
    Until: 13:45,1.000,
    Until: 14:30,0.048,
    Until: 14:35,1.000,
    Until: 17:03,0.000,
    Until: 17:05,1.000,
    Until: 17:50,0.048,
    Until: 17:55,1.000,
    Until: 24:00,0.000,
    Through: 6/10,
    For: AllDays,
    Until: 01:40,0.000,
    Until: 01:42,1.000,
    Until: 02:27,0.048,
    Until: 02:32,1.000,
    Until: 03:21,0.000,
    Until: 03:23,1.000,
    Until: 04:08,0.048,
    Until: 04:13,1.000,
    Until: 07:22,0.000,
    Until: 07:24,1.000,
    Until: 08:09,0.048,
    Until: 08:14,1.000,
    Until: 11:49,0.000,
    Until: 11:51,1.000,
    Until: 12:36,0.048,
    Until: 12:41,1.000,
    Until: 13:35,0.000,
    Until: 13:37,1.000,
    Until: 14:22,0.048,
    Until: 14:27,1.000,
    Until: 24:00,0.000,
    Through: 6/11,
    For: AllDays,
    Until: 03:07,0.000,
    Until: 03:09,1.000,
    Until: 03:54,0.048,
    Until: 03:59,1.000,
    Until: 04:15,0.000,
    Until: 04:17,1.000,
    Until: 05:02,0.048,
    Until: 05:07,1.000,
    Until: 08:49,0.000,
    Until: 08:51,1.000,
    Until: 09:36,0.048,
    Until: 09:41,1.000,
    Until: 14:03,0.000,
    Until: 14:05,1.000,
    Until: 14:50,0.048,
    Until: 14:55,1.000,
    Until: 24:00,0.000,
    Through: 6/12,
    For: AllDays,
    Until: 01:51,0.000,
    Until: 01:53,1.000,
    Until: 02:38,0.048,
    Until: 02:43,1.000,
    Until: 09:12,0.000,
    Until: 09:14,1.000,
    Until: 09:59,0.048,
    Until: 10:04,1.000,
    Until: 17:27,0.000,
    Until: 17:29,1.000,
    Until: 18:14,0.048,
    Until: 18:19,1.000,
    Until: 24:00,0.000,
    Through: 6/13,
    For: AllDays,
    Until: 24:00,0.000,
    Through: 6/14,
    For: AllDays,
    Until: 24:00,0.000,
    Through: 6/15,
    For: AllDays,
    Until: 03:38,0.000,
    Until: 03:40,1.000,
    Until: 04:25,0.048,
    Until: 04:30,1.000,
    Until: 05:34,0.000,
    Until: 05:36,1.000,
    Until: 06:21,0.048,
    Until: 06:26,1.000,
    Until: 07:21,0.000,
    Until: 07:23,1.000,
    Until: 08:08,0.048,
    Until: 08:13,1.000,
    Until: 13:23,0.000,
    Until: 13:25,1.000,
    Until: 14:10,0.048,
    Until: 14:15,1.000,
    Until: 24:00,0.000,
    Through: 6/16,
    For: AllDays,
    Until: 03:21,0.000,
    Until: 03:23,1.000,
    Until: 04:08,0.048,
    Until: 04:13,1.000,
    Until: 07:27,0.000,
    Until: 07:29,1.000,
    Until: 08:14,0.048,
    Until: 08:19,1.000,
    Until: 11:18,0.000,
    Until: 11:20,1.000,
    Until: 12:05,0.048,
    Until: 12:10,1.000,
    Until: 24:00,0.000,
    Through: 6/17,
    For: AllDays,
    Until: 02:24,0.000,
    Until: 02:26,1.000,
    Until: 03:11,0.048,
    Until: 03:16,1.000,
    Until: 03:17,0.000,
    Until: 03:19,1.000,
    Until: 04:04,0.048,
    Until: 04:09,1.000,
    Until: 24:00,0.000,
    Through: 6/18,
    For: AllDays,
    Until: 01:23,0.000,
    Until: 01:25,1.000,
    Until: 02:10,0.048,
    Until: 02:15,1.000,
    Until: 04:02,0.000,
    Until: 04:04,1.000,
    Until: 04:49,0.048,
    Until: 04:54,1.000,
    Until: 05:57,0.000,
    Until: 05:59,1.000,
    Until: 06:44,0.048,
    Until: 06:49,1.000,
    Until: 17:12,0.000,
    Until: 17:14,1.000,
    Until: 17:59,0.048,
    Until: 18:04,1.000,
    Until: 24:00,0.000,
    Through: 6/19,
    For: AllDays,
    Until: 02:58,0.000,
    Until: 03:00,1.000,
    Until: 03:45,0.048,
    Until: 03:50,1.000,
    Until: 03:51,0.000,
    Until: 03:53,1.000,
    Until: 04:38,0.048,
    Until: 04:43,1.000,
    Until: 06:52,0.000,
    Until: 06:54,1.000,
    Until: 07:39,0.048,
    Until: 07:44,1.000,
    Until: 10:59,0.000,
    Until: 11:01,1.000,
    Until: 11:46,0.048,
    Until: 11:51,1.000,
    Until: 24:00,0.000,
    Through: 6/20,
    For: AllDays,
    Until: 24:00,0.000,
    Through: 6/21,
    For: AllDays,
    Until: 24:00,0.000,
    Through: 6/22,
    For: AllDays,
    Until: 03:45,0.000,
    Until: 03:47,1.000,
    Until: 04:32,0.048,
    Until: 04:37,1.000,
    Until: 13:34,0.000,
    Until: 13:36,1.000,
    Until: 14:21,0.048,
    Until: 14:26,1.000,
    Until: 17:10,0.000,
    Until: 17:12,1.000,
    Until: 17:57,0.048,
    Until: 18:02,1.000,
    Until: 24:00,0.000,
    Through: 6/23,
    For: AllDays,
    Until: 02:44,0.000,
    Until: 02:46,1.000,
    Until: 03:31,0.048,
    Until: 03:36,1.000,
    Until: 03:37,0.000,
    Until: 03:39,1.000,
    Until: 04:24,0.048,
    Until: 04:29,1.000,
    Until: 07:58,0.000,
    Until: 08:00,1.000,
    Until: 08:45,0.048,
    Until: 08:50,1.000,
    Until: 11:59,0.000,
    Until: 12:01,1.000,
    Until: 12:46,0.048,
    Until: 12:51,1.000,
    Until: 24:00,0.000,
    Through: 6/24,
    For: AllDays,
    Until: 01:40,0.000,
    Until: 01:42,1.000,
    Until: 02:27,0.048,
    Until: 02:32,1.000,
    Until: 03:38,0.000,
    Until: 03:40,1.000,
    Until: 04:25,0.048,
    Until: 04:30,1.000,
    Until: 08:11,0.000,
    Until: 08:13,1.000,
    Until: 08:58,0.048,
    Until: 09:03,1.000,
    Until: 12:08,0.000,
    Until: 12:10,1.000,
    Until: 12:55,0.048,
    Until: 13:00,1.000,
    Until: 13:40,0.000,
    Until: 13:42,1.000,
    Until: 14:27,0.048,
    Until: 14:32,1.000,
    Until: 17:03,0.000,
    Until: 17:05,1.000,
    Until: 17:50,0.048,
    Until: 17:55,1.000,
    Until: 24:00,0.000,
    Through: 6/25,
    For: AllDays,
    Until: 00:53,0.000,
    Until: 00:55,1.000,
    Until: 01:40,0.048,
    Until: 01:45,1.000,
    Until: 02:53,0.000,
    Until: 02:55,1.000,
    Until: 03:40,0.048,
    Until: 03:45,1.000,
    Until: 04:02,0.000,
    Until: 04:04,1.000,
    Until: 04:49,0.048,
    Until: 04:54,1.000,
    Until: 07:15,0.000,
    Until: 07:17,1.000,
    Until: 08:02,0.048,
    Until: 08:07,1.000,
    Until: 12:00,0.000,
    Until: 12:02,1.000,
    Until: 12:47,0.048,
    Until: 12:52,1.000,
    Until: 24:00,0.000,
    Through: 6/26,
    For: AllDays,
    Until: 00:34,0.000,
    Until: 00:36,1.000,
    Until: 01:21,0.048,
    Until: 01:26,1.000,
    Until: 02:47,0.000,
    Until: 02:49,1.000,
    Until: 03:34,0.048,
    Until: 03:39,1.000,
    Until: 16:41,0.000,
    Until: 16:43,1.000,
    Until: 17:28,0.048,
    Until: 17:33,1.000,
    Until: 24:00,0.000,
    Through: 6/27,
    For: AllDays,
    Until: 24:00,0.000,
    Through: 6/28,
    For: AllDays,
    Until: 24:00,0.000,
    Through: 6/29,
    For: AllDays,
    Until: 03:23,0.000,
    Until: 03:25,1.000,
    Until: 04:10,0.048,
    Until: 04:15,1.000,
    Until: 11:22,0.000,
    Until: 11:24,1.000,
    Until: 12:09,0.048,
    Until: 12:14,1.000,
    Until: 17:13,0.000,
    Until: 17:15,1.000,
    Until: 18:00,0.048,
    Until: 18:05,1.000,
    Until: 24:00,0.000,
    Through: 6/30,
    For: AllDays,
    Until: 02:38,0.000,
    Until: 02:40,1.000,
    Until: 03:25,0.048,
    Until: 03:30,1.000,
    Until: 03:45,0.000,
    Until: 03:47,1.000,
    Until: 04:32,0.048,
    Until: 04:37,1.000,
    Until: 07:27,0.000,
    Until: 07:29,1.000,
    Until: 08:14,0.048,
    Until: 08:19,1.000,
    Until: 11:58,0.000,
    Until: 12:00,1.000,
    Until: 12:45,0.048,
    Until: 12:50,1.000,
    Until: 14:04,0.000,
    Until: 14:06,1.000,
    Until: 14:51,0.048,
    Until: 14:56,1.000,
    Until: 24:00,0.000,
    Through: 7/1,
    For: AllDays,
    Until: 02:34,0.000,
    Until: 02:36,1.000,
    Until: 03:21,0.048,
    Until: 03:26,1.000,
    Until: 03:31,0.000,
    Until: 03:33,1.000,
    Until: 04:18,0.048,
    Until: 04:23,1.000,
    Until: 07:04,0.000,
    Until: 07:06,1.000,
    Until: 07:51,0.048,
    Until: 07:56,1.000,
    Until: 11:37,0.000,
    Until: 11:39,1.000,
    Until: 12:24,0.048,
    Until: 12:29,1.000,
    Until: 24:00,0.000,
    Through: 7/2,
    For: AllDays,
    Until: 01:38,0.000,
    Until: 01:40,1.000,
    Until: 02:25,0.048,
    Until: 02:30,1.000,
    Until: 03:23,0.000,
    Until: 03:25,1.000,
    Until: 04:10,0.048,
    Until: 04:15,1.000,
    Until: 06:45,0.000,
    Until: 06:47,1.000,
    Until: 07:32,0.048,
    Until: 07:37,1.000,
    Until: 10:22,0.000,
    Until: 10:24,1.000,
    Until: 11:09,0.048,
    Until: 11:14,1.000,
    Until: 17:13,0.000,
    Until: 17:15,1.000,
    Until: 18:00,0.048,
    Until: 18:05,1.000,
    Until: 24:00,0.000,
    Through: 7/3,
    For: AllDays,
    Until: 02:53,0.000,
    Until: 02:55,1.000,
    Until: 03:40,0.048,
    Until: 03:45,1.000,
    Until: 17:07,0.000,
    Until: 17:09,1.000,
    Until: 17:54,0.048,
    Until: 17:59,1.000,
    Until: 24:00,0.000,
    Through: 7/4,
    For: AllDays,
    Until: 24:00,0.000,
    Through: 7/5,
    For: AllDays,
    Until: 24:00,0.000,
    Through: 7/6,
    For: AllDays,
    Until: 01:32,0.000,
    Until: 01:34,1.000,
    Until: 02:19,0.048,
    Until: 02:24,1.000,
    Until: 02:32,0.000,
    Until: 02:34,1.000,
    Until: 03:19,0.048,
    Until: 03:24,1.000,
    Until: 03:25,0.000,
    Until: 03:27,1.000,
    Until: 04:12,0.048,
    Until: 04:17,1.000,
    Until: 06:54,0.000,
    Until: 06:56,1.000,
    Until: 07:41,0.048,
    Until: 07:46,1.000,
    Until: 10:17,0.000,
    Until: 10:19,1.000,
    Until: 11:04,0.048,
    Until: 11:09,1.000,
    Until: 11:13,0.000,
    Until: 11:15,1.000,
    Until: 12:00,0.048,
    Until: 12:05,1.000,
    Until: 16:46,0.000,
    Until: 16:48,1.000,
    Until: 17:33,0.048,
    Until: 17:38,1.000,
    Until: 24:00,0.000,
    Through: 7/7,
    For: AllDays,
    Until: 01:04,0.000,
    Until: 01:06,1.000,
    Until: 01:51,0.048,
    Until: 01:56,1.000,
    Until: 02:53,0.000,
    Until: 02:55,1.000,
    Until: 03:40,0.048,
    Until: 03:45,1.000,
    Until: 03:46,0.000,
    Until: 03:48,1.000,
    Until: 04:33,0.048,
    Until: 04:38,1.000,
    Until: 06:30,0.000,
    Until: 06:32,1.000,
    Until: 07:17,0.048,
    Until: 07:22,1.000,
    Until: 11:01,0.000,
    Until: 11:03,1.000,
    Until: 11:48,0.048,
    Until: 11:53,1.000,
    Until: 13:39,0.000,
    Until: 13:41,1.000,
    Until: 14:26,0.048,
    Until: 14:31,1.000,
    Until: 24:00,0.000,
    Through: 7/8,
    For: AllDays,
    Until: 04:03,0.000,
    Until: 04:05,1.000,
    Until: 04:50,0.048,
    Until: 04:55,1.000,
    Until: 04:56,0.000,
    Until: 04:58,1.000,
    Until: 05:43,0.048,
    Until: 05:48,1.000,
    Until: 11:54,0.000,
    Until: 11:56,1.000,
    Until: 12:41,0.048,
    Until: 12:46,1.000,
    Until: 12:47,0.000,
    Until: 12:49,1.000,
    Until: 13:34,0.048,
    Until: 13:39,1.000,
    Until: 24:00,0.000,
    Through: 7/9,
    For: AllDays,
    Until: 02:28,0.000,
    Until: 02:30,1.000,
    Until: 03:15,0.048,
    Until: 03:20,1.000,
    Until: 03:21,0.000,
    Until: 03:23,1.000,
    Until: 04:08,0.048,
    Until: 04:13,1.000,
    Until: 06:13,0.000,
    Until: 06:15,1.000,
    Until: 07:00,0.048,
    Until: 07:05,1.000,
    Until: 11:11,0.000,
    Until: 11:13,1.000,
    Until: 11:58,0.048,
    Until: 12:03,1.000,
    Until: 12:54,0.000,
    Until: 12:56,1.000,
    Until: 13:41,0.048,
    Until: 13:46,1.000,
    Until: 16:34,0.000,
    Until: 16:36,1.000,
    Until: 17:21,0.048,
    Until: 17:26,1.000,
    Until: 24:00,0.000,
    Through: 7/10,
    For: AllDays,
    Until: 01:45,0.000,
    Until: 01:47,1.000,
    Until: 02:32,0.048,
    Until: 02:37,1.000,
    Until: 03:43,0.000,
    Until: 03:45,1.000,
    Until: 04:30,0.048,
    Until: 04:35,1.000,
    Until: 07:54,0.000,
    Until: 07:56,1.000,
    Until: 08:41,0.048,
    Until: 08:46,1.000,
    Until: 11:27,0.000,
    Until: 11:29,1.000,
    Until: 12:14,0.048,
    Until: 12:19,1.000,
    Until: 12:58,0.000,
    Until: 13:00,1.000,
    Until: 13:45,0.048,
    Until: 13:50,1.000,
    Until: 24:00,0.000,
    Through: 7/11,
    For: AllDays,
    Until: 24:00,0.000,
    Through: 7/12,
    For: AllDays,
    Until: 24:00,0.000,
    Through: 7/13,
    For: AllDays,
    Until: 01:08,0.000,
    Until: 01:10,1.000,
    Until: 01:55,0.048,
    Until: 02:00,1.000,
    Until: 03:02,0.000,
    Until: 03:04,1.000,
    Until: 03:49,0.048,
    Until: 03:54,1.000,
    Until: 04:12,0.000,
    Until: 04:14,1.000,
    Until: 04:59,0.048,
    Until: 05:04,1.000,
    Until: 06:04,0.000,
    Until: 06:06,1.000,
    Until: 06:51,0.048,
    Until: 06:56,1.000,
    Until: 11:27,0.000,
    Until: 11:29,1.000,
    Until: 12:14,0.048,
    Until: 12:19,1.000,
    Until: 12:45,0.000,
    Until: 12:47,1.000,
    Until: 13:32,0.048,
    Until: 13:37,1.000,
    Until: 16:41,0.000,
    Until: 16:43,1.000,
    Until: 17:28,0.048,
    Until: 17:33,1.000,
    Until: 24:00,0.000,
    Through: 7/14,
    For: AllDays,
    Until: 00:34,0.000,
    Until: 00:36,1.000,
    Until: 01:21,0.048,
    Until: 01:26,1.000,
    Until: 03:02,0.000,
    Until: 03:04,1.000,
    Until: 03:49,0.048,
    Until: 03:54,1.000,
    Until: 07:01,0.000,
    Until: 07:03,1.000,
    Until: 07:48,0.048,
    Until: 07:53,1.000,
    Until: 10:04,0.000,
    Until: 10:06,1.000,
    Until: 10:51,0.048,
    Until: 10:56,1.000,
    Until: 11:46,0.000,
    Until: 11:48,1.000,
    Until: 12:33,0.048,
    Until: 12:38,1.000,
    Until: 16:27,0.000,
    Until: 16:29,1.000,
    Until: 17:14,0.048,
    Until: 17:19,1.000,
    Until: 24:00,0.000,
    Through: 7/15,
    For: AllDays,
    Until: 00:28,0.000,
    Until: 00:30,1.000,
    Until: 01:15,0.048,
    Until: 01:20,1.000,
    Until: 02:18,0.000,
    Until: 02:20,1.000,
    Until: 03:05,0.048,
    Until: 03:10,1.000,
    Until: 03:28,0.000,
    Until: 03:30,1.000,
    Until: 04:15,0.048,
    Until: 04:20,1.000,
    Until: 08:17,0.000,
    Until: 08:19,1.000,
    Until: 09:04,0.048,
    Until: 09:09,1.000,
    Until: 12:18,0.000,
    Until: 12:20,1.000,
    Until: 13:05,0.048,
    Until: 13:10,1.000,
    Until: 14:01,0.000,
    Until: 14:03,1.000,
    Until: 14:48,0.048,
    Until: 14:53,1.000,
    Until: 16:26,0.000,
    Until: 16:28,1.000,
    Until: 17:13,0.048,
    Until: 17:18,1.000,
    Until: 24:00,0.000,
    Through: 7/16,
    For: AllDays,
    Until: 02:24,0.000,
    Until: 02:26,1.000,
    Until: 03:11,0.048,
    Until: 03:16,1.000,
    Until: 03:41,0.000,
    Until: 03:43,1.000,
    Until: 04:28,0.048,
    Until: 04:33,1.000,
    Until: 06:01,0.000,
    Until: 06:03,1.000,
    Until: 06:48,0.048,
    Until: 06:53,1.000,
    Until: 12:10,0.000,
    Until: 12:12,1.000,
    Until: 12:57,0.048,
    Until: 13:02,1.000,
    Until: 16:58,0.000,
    Until: 17:00,1.000,
    Until: 17:45,0.048,
    Until: 17:50,1.000,
    Until: 24:00,0.000,
    Through: 7/17,
    For: AllDays,
    Until: 02:12,0.000,
    Until: 02:14,1.000,
    Until: 02:59,0.048,
    Until: 03:04,1.000,
    Until: 04:20,0.000,
    Until: 04:22,1.000,
    Until: 05:07,0.048,
    Until: 05:12,1.000,
    Until: 06:16,0.000,
    Until: 06:18,1.000,
    Until: 07:03,0.048,
    Until: 07:08,1.000,
    Until: 11:30,0.000,
    Until: 11:32,1.000,
    Until: 12:17,0.048,
    Until: 12:22,1.000,
    Until: 24:00,0.000,
    Through: 7/18,
    For: AllDays,
    Until: 24:00,0.000,
    Through: 7/19,
    For: AllDays,
    Until: 24:00,0.000,
    Through: 7/20,
    For: AllDays,
    Until: 02:05,0.000,
    Until: 02:07,1.000,
    Until: 02:52,0.048,
    Until: 02:57,1.000,
    Until: 03:06,0.000,
    Until: 03:08,1.000,
    Until: 03:53,0.048,
    Until: 03:58,1.000,
    Until: 07:35,0.000,
    Until: 07:37,1.000,
    Until: 08:22,0.048,
    Until: 08:27,1.000,
    Until: 11:39,0.000,
    Until: 11:41,1.000,
    Until: 12:26,0.048,
    Until: 12:31,1.000,
    Until: 24:00,0.000,
    Through: 7/21,
    For: AllDays,
    Until: 03:13,0.000,
    Until: 03:15,1.000,
    Until: 04:00,0.048,
    Until: 04:05,1.000,
    Until: 04:07,0.000,
    Until: 04:09,1.000,
    Until: 04:54,0.048,
    Until: 04:59,1.000,
    Until: 06:10,0.000,
    Until: 06:12,1.000,
    Until: 06:57,0.048,
    Until: 07:02,1.000,
    Until: 07:28,0.000,
    Until: 07:30,1.000,
    Until: 08:15,0.048,
    Until: 08:20,1.000,
    Until: 11:02,0.000,
    Until: 11:04,1.000,
    Until: 11:49,0.048,
    Until: 11:54,1.000,
    Until: 24:00,0.000,
    Through: 7/22,
    For: AllDays,
    Until: 01:06,0.000,
    Until: 01:08,1.000,
    Until: 01:53,0.048,
    Until: 01:58,1.000,
    Until: 01:59,0.000,
    Until: 02:01,1.000,
    Until: 02:46,0.048,
    Until: 02:51,1.000,
    Until: 02:52,0.000,
    Until: 02:54,1.000,
    Until: 03:39,0.048,
    Until: 03:44,1.000,
    Until: 05:47,0.000,
    Until: 05:49,1.000,
    Until: 06:34,0.048,
    Until: 06:39,1.000,
    Until: 06:50,0.000,
    Until: 06:52,1.000,
    Until: 07:37,0.048,
    Until: 07:42,1.000,
    Until: 18:28,0.000,
    Until: 18:30,1.000,
    Until: 19:15,0.048,
    Until: 19:20,1.000,
    Until: 24:00,0.000,
    Through: 7/23,
    For: AllDays,
    Until: 01:57,0.000,
    Until: 01:59,1.000,
    Until: 02:44,0.048,
    Until: 02:49,1.000,
    Until: 03:24,0.000,
    Until: 03:26,1.000,
    Until: 04:11,0.048,
    Until: 04:16,1.000,
    Until: 04:17,0.000,
    Until: 04:19,1.000,
    Until: 05:04,0.048,
    Until: 05:09,1.000,
    Until: 14:10,0.000,
    Until: 14:12,1.000,
    Until: 14:57,0.048,
    Until: 15:02,1.000,
    Until: 24:00,0.000,
    Through: 7/24,
    For: AllDays,
    Until: 01:02,0.000,
    Until: 01:04,1.000,
    Until: 01:49,0.048,
    Until: 01:54,1.000,
    Until: 02:17,0.000,
    Until: 02:19,1.000,
    Until: 03:04,0.048,
    Until: 03:09,1.000,
    Until: 03:25,0.000,
    Until: 03:27,1.000,
    Until: 04:12,0.048,
    Until: 04:17,1.000,
    Until: 06:34,0.000,
    Until: 06:36,1.000,
    Until: 07:21,0.048,
    Until: 07:26,1.000,
    Until: 11:24,0.000,
    Until: 11:26,1.000,
    Until: 12:11,0.048,
    Until: 12:16,1.000,
    Until: 24:00,0.000,
    Through: 7/25,
    For: AllDays,
    Until: 24:00,0.000,
    Through: 7/26,
    For: AllDays,
    Until: 24:00,0.000,
    Through: 7/27,
    For: AllDays,
    Until: 01:19,0.000,
    Until: 01:21,1.000,
    Until: 02:06,0.048,
    Until: 02:11,1.000,
    Until: 02:18,0.000,
    Until: 02:20,1.000,
    Until: 03:05,0.048,
    Until: 03:10,1.000,
    Until: 03:11,0.000,
    Until: 03:13,1.000,
    Until: 03:58,0.048,
    Until: 04:03,1.000,
    Until: 06:32,0.000,
    Until: 06:34,1.000,
    Until: 07:19,0.048,
    Until: 07:24,1.000,
    Until: 13:16,0.000,
    Until: 13:18,1.000,
    Until: 14:03,0.048,
    Until: 14:08,1.000,
    Until: 15:47,0.000,
    Until: 15:49,1.000,
    Until: 16:34,0.048,
    Until: 16:39,1.000,
    Until: 24:00,0.000,
    Through: 7/28,
    For: AllDays,
    Until: 01:46,0.000,
    Until: 01:48,1.000,
    Until: 02:33,0.048,
    Until: 02:38,1.000,
    Until: 03:15,0.000,
    Until: 03:17,1.000,
    Until: 04:02,0.048,
    Until: 04:07,1.000,
    Until: 10:45,0.000,
    Until: 10:47,1.000,
    Until: 11:32,0.048,
    Until: 11:37,1.000,
    Until: 18:31,0.000,
    Until: 18:33,1.000,
    Until: 19:18,0.048,
    Until: 19:23,1.000,
    Until: 24:00,0.000,
    Through: 7/29,
    For: AllDays,
    Until: 01:20,0.000,
    Until: 01:22,1.000,
    Until: 02:07,0.048,
    Until: 02:12,1.000,
    Until: 02:23,0.000,
    Until: 02:25,1.000,
    Until: 03:10,0.048,
    Until: 03:15,1.000,
    Until: 07:13,0.000,
    Until: 07:15,1.000,
    Until: 08:00,0.048,
    Until: 08:05,1.000,
    Until: 08:36,0.000,
    Until: 08:38,1.000,
    Until: 09:23,0.048,
    Until: 09:28,1.000,
    Until: 24:00,0.000,
    Through: 7/30,
    For: AllDays,
    Until: 00:51,0.000,
    Until: 00:53,1.000,
    Until: 01:38,0.048,
    Until: 01:43,1.000,
    Until: 01:44,0.000,
    Until: 01:46,1.000,
    Until: 02:31,0.048,
    Until: 02:36,1.000,
    Until: 02:37,0.000,
    Until: 02:39,1.000,
    Until: 03:24,0.048,
    Until: 03:29,1.000,
    Until: 06:50,0.000,
    Until: 06:52,1.000,
    Until: 07:37,0.048,
    Until: 07:42,1.000,
    Until: 07:50,0.000,
    Until: 07:52,1.000,
    Until: 08:37,0.048,
    Until: 08:42,1.000,
    Until: 10:37,0.000,
    Until: 10:39,1.000,
    Until: 11:24,0.048,
    Until: 11:29,1.000,
    Until: 13:25,0.000,
    Until: 13:27,1.000,
    Until: 14:12,0.048,
    Until: 14:17,1.000,
    Until: 24:00,0.000,
    Through: 7/31,
    For: AllDays,
    Until: 01:44,0.000,
    Until: 01:46,1.000,
    Until: 02:31,0.048,
    Until: 02:36,1.000,
    Until: 02:37,0.000,
    Until: 02:39,1.000,
    Until: 03:24,0.048,
    Until: 03:29,1.000,
    Until: 03:30,0.000,
    Until: 03:32,1.000,
    Until: 04:17,0.048,
    Until: 04:22,1.000,
    Until: 06:34,0.000,
    Until: 06:36,1.000,
    Until: 07:21,0.048,
    Until: 07:26,1.000,
    Until: 07:45,0.000,
    Until: 07:47,1.000,
    Until: 08:32,0.048,
    Until: 08:37,1.000,
    Until: 11:39,0.000,
    Until: 11:41,1.000,
    Until: 12:26,0.048,
    Until: 12:31,1.000,
    Until: 12:32,0.000,
    Until: 12:34,1.000,
    Until: 13:19,0.048,
    Until: 13:24,1.000,
    Until: 17:14,0.000,
    Until: 17:16,1.000,
    Until: 18:01,0.048,
    Until: 18:06,1.000,
    Until: 24:00,0.000,
    Through: 8/1,
    For: AllDays,
    Until: 24:00,0.000,
    Through: 8/2,
    For: AllDays,
    Until: 24:00,0.000,
    Through: 8/3,
    For: AllDays,
    Until: 02:38,0.000,
    Until: 02:40,1.000,
    Until: 03:25,0.048,
    Until: 03:30,1.000,
    Until: 03:58,0.000,
    Until: 04:00,1.000,
    Until: 04:45,0.048,
    Until: 04:50,1.000,
    Until: 07:08,0.000,
    Until: 07:10,1.000,
    Until: 07:55,0.048,
    Until: 08:00,1.000,
    Until: 12:02,0.000,
    Until: 12:04,1.000,
    Until: 12:49,0.048,
    Until: 12:54,1.000,
    Until: 14:04,0.000,
    Until: 14:06,1.000,
    Until: 14:51,0.048,
    Until: 14:56,1.000,
    Until: 24:00,0.000,
    Through: 8/4,
    For: AllDays,
    Until: 02:54,0.000,
    Until: 02:56,1.000,
    Until: 03:41,0.048,
    Until: 03:46,1.000,
    Until: 03:47,0.000,
    Until: 03:49,1.000,
    Until: 04:34,0.048,
    Until: 04:39,1.000,
    Until: 08:29,0.000,
    Until: 08:31,1.000,
    Until: 09:16,0.048,
    Until: 09:21,1.000,
    Until: 13:24,0.000,
    Until: 13:26,1.000,
    Until: 14:11,0.048,
    Until: 14:16,1.000,
    Until: 24:00,0.000,
    Through: 8/5,
    For: AllDays,
    Until: 01:28,0.000,
    Until: 01:30,1.000,
    Until: 02:15,0.048,
    Until: 02:20,1.000,
    Until: 06:20,0.000,
    Until: 06:22,1.000,
    Until: 07:07,0.048,
    Until: 07:12,1.000,
    Until: 24:00,0.000,
    Through: 8/6,
    For: AllDays,
    Until: 01:54,0.000,
    Until: 01:56,1.000,
    Until: 02:41,0.048,
    Until: 02:46,1.000,
    Until: 03:13,0.000,
    Until: 03:15,1.000,
    Until: 04:00,0.048,
    Until: 04:05,1.000,
    Until: 05:28,0.000,
    Until: 05:30,1.000,
    Until: 06:15,0.048,
    Until: 06:20,1.000,
    Until: 12:53,0.000,
    Until: 12:55,1.000,
    Until: 13:40,0.048,
    Until: 13:45,1.000,
    Until: 16:55,0.000,
    Until: 16:57,1.000,
    Until: 17:42,0.048,
    Until: 17:47,1.000,
    Until: 24:00,0.000,
    Through: 8/7,
    For: AllDays,
    Until: 01:59,0.000,
    Until: 02:01,1.000,
    Until: 02:46,0.048,
    Until: 02:51,1.000,
    Until: 02:52,0.000,
    Until: 02:54,1.000,
    Until: 03:39,0.048,
    Until: 03:44,1.000,
    Until: 11:02,0.000,
    Until: 11:04,1.000,
    Until: 11:49,0.048,
    Until: 11:54,1.000,
    Until: 24:00,0.000,
    Through: 8/8,
    For: AllDays,
    Until: 24:00,0.000,
    Through: 8/9,
    For: AllDays,
    Until: 24:00,0.000,
    Through: 8/10,
    For: AllDays,
    Until: 02:33,0.000,
    Until: 02:35,1.000,
    Until: 03:20,0.048,
    Until: 03:25,1.000,
    Until: 07:03,0.000,
    Until: 07:05,1.000,
    Until: 07:50,0.048,
    Until: 07:55,1.000,
    Until: 11:09,0.000,
    Until: 11:11,1.000,
    Until: 11:56,0.048,
    Until: 12:01,1.000,
    Until: 24:00,0.000,
    Through: 8/11,
    For: AllDays,
    Until: 01:15,0.000,
    Until: 01:17,1.000,
    Until: 02:02,0.048,
    Until: 02:07,1.000,
    Until: 02:10,0.000,
    Until: 02:12,1.000,
    Until: 02:57,0.048,
    Until: 03:02,1.000,
    Until: 03:03,0.000,
    Until: 03:05,1.000,
    Until: 03:50,0.048,
    Until: 03:55,1.000,
    Until: 07:08,0.000,
    Until: 07:10,1.000,
    Until: 07:55,0.048,
    Until: 08:00,1.000,
    Until: 13:23,0.000,
    Until: 13:25,1.000,
    Until: 14:10,0.048,
    Until: 14:15,1.000,
    Until: 15:48,0.000,
    Until: 15:50,1.000,
    Until: 16:35,0.048,
    Until: 16:40,1.000,
    Until: 24:00,0.000,
    Through: 8/12,
    For: AllDays,
    Until: 10:22,0.000,
    Until: 10:24,1.000,
    Until: 11:09,0.048,
    Until: 11:14,1.000,
    Until: 24:00,0.000,
    Through: 8/13,
    For: AllDays,
    Until: 02:19,0.000,
    Until: 02:21,1.000,
    Until: 03:06,0.048,
    Until: 03:11,1.000,
    Until: 03:12,0.000,
    Until: 03:14,1.000,
    Until: 03:59,0.048,
    Until: 04:04,1.000,
    Until: 12:05,0.000,
    Until: 12:07,1.000,
    Until: 12:52,0.048,
    Until: 12:57,1.000,
    Until: 13:28,0.000,
    Until: 13:30,1.000,
    Until: 14:15,0.048,
    Until: 14:20,1.000,
    Until: 24:00,0.000,
    Through: 8/14,
    For: AllDays,
    Until: 02:08,0.000,
    Until: 02:10,1.000,
    Until: 02:55,0.048,
    Until: 03:00,1.000,
    Until: 03:01,0.000,
    Until: 03:03,1.000,
    Until: 03:48,0.048,
    Until: 03:53,1.000,
    Until: 06:43,0.000,
    Until: 06:45,1.000,
    Until: 07:30,0.048,
    Until: 07:35,1.000,
    Until: 10:54,0.000,
    Until: 10:56,1.000,
    Until: 11:41,0.048,
    Until: 11:46,1.000,
    Until: 17:17,0.000,
    Until: 17:19,1.000,
    Until: 18:04,0.048,
    Until: 18:09,1.000,
    Until: 24:00,0.000,
    Through: 8/15,
    For: AllDays,
    Until: 24:00,0.000,
    Through: 8/16,
    For: AllDays,
    Until: 24:00,0.000,
    Through: 8/17,
    For: AllDays,
    Until: 01:40,0.000,
    Until: 01:42,1.000,
    Until: 02:27,0.048,
    Until: 02:32,1.000,
    Until: 03:42,0.000,
    Until: 03:44,1.000,
    Until: 04:29,0.048,
    Until: 04:34,1.000,
    Until: 05:30,0.000,
    Until: 05:32,1.000,
    Until: 06:17,0.048,
    Until: 06:22,1.000,
    Until: 24:00,0.000,
    Through: 8/18,
    For: AllDays,
    Until: 00:19,0.000,
    Until: 00:21,1.000,
    Until: 01:06,0.048,
    Until: 01:11,1.000,
    Until: 02:51,0.000,
    Until: 02:53,1.000,
    Until: 03:38,0.048,
    Until: 03:43,1.000,
    Until: 06:33,0.000,
    Until: 06:35,1.000,
    Until: 07:20,0.048,
    Until: 07:25,1.000,
    Until: 12:20,0.000,
    Until: 12:22,1.000,
    Until: 13:07,0.048,
    Until: 13:12,1.000,
    Until: 17:54,0.000,
    Until: 17:56,1.000,
    Until: 18:41,0.048,
    Until: 18:46,1.000,
    Until: 24:00,0.000,
    Through: 8/19,
    For: AllDays,
    Until: 01:53,0.000,
    Until: 01:55,1.000,
    Until: 02:40,0.048,
    Until: 02:45,1.000,
    Until: 13:58,0.000,
    Until: 14:00,1.000,
    Until: 14:45,0.048,
    Until: 14:50,1.000,
    Until: 16:55,0.000,
    Until: 16:57,1.000,
    Until: 17:42,0.048,
    Until: 17:47,1.000,
    Until: 24:00,0.000,
    Through: 8/20,
    For: AllDays,
    Until: 01:05,0.000,
    Until: 01:07,1.000,
    Until: 01:52,0.048,
    Until: 01:57,1.000,
    Until: 24:00,0.000,
    Through: 8/21,
    For: AllDays,
    Until: 02:50,0.000,
    Until: 02:52,1.000,
    Until: 03:37,0.048,
    Until: 03:42,1.000,
    Until: 03:43,0.000,
    Until: 03:45,1.000,
    Until: 04:30,0.048,
    Until: 04:35,1.000,
    Until: 11:57,0.000,
    Until: 11:59,1.000,
    Until: 12:44,0.048,
    Until: 12:49,1.000,
    Until: 24:00,0.000,
    Through: 8/22,
    For: AllDays,
    Until: 24:00,0.000,
    Through: 8/23,
    For: AllDays,
    Until: 24:00,0.000,
    Through: 8/24,
    For: AllDays,
    Until: 04:39,0.000,
    Until: 04:41,1.000,
    Until: 05:26,0.048,
    Until: 05:31,1.000,
    Until: 11:51,0.000,
    Until: 11:53,1.000,
    Until: 12:38,0.048,
    Until: 12:43,1.000,
    Until: 12:44,0.000,
    Until: 12:46,1.000,
    Until: 13:31,0.048,
    Until: 13:36,1.000,
    Until: 24:00,0.000,
    Through: 8/25,
    For: AllDays,
    Until: 01:03,0.000,
    Until: 01:05,1.000,
    Until: 01:50,0.048,
    Until: 01:55,1.000,
    Until: 02:53,0.000,
    Until: 02:55,1.000,
    Until: 03:40,0.048,
    Until: 03:45,1.000,
    Until: 03:46,0.000,
    Until: 03:48,1.000,
    Until: 04:33,0.048,
    Until: 04:38,1.000,
    Until: 16:00,0.000,
    Until: 16:02,1.000,
    Until: 16:47,0.048,
    Until: 16:52,1.000,
    Until: 24:00,0.000,
    Through: 8/26,
    For: AllDays,
    Until: 02:51,0.000,
    Until: 02:53,1.000,
    Until: 03:38,0.048,
    Until: 03:43,1.000,
    Until: 03:44,0.000,
    Until: 03:46,1.000,
    Until: 04:31,0.048,
    Until: 04:36,1.000,
    Until: 07:11,0.000,
    Until: 07:13,1.000,
    Until: 07:58,0.048,
    Until: 08:03,1.000,
    Until: 08:34,0.000,
    Until: 08:36,1.000,
    Until: 09:21,0.048,
    Until: 09:26,1.000,
    Until: 10:20,0.000,
    Until: 10:22,1.000,
    Until: 11:07,0.048,
    Until: 11:12,1.000,
    Until: 11:44,0.000,
    Until: 11:46,1.000,
    Until: 12:31,0.048,
    Until: 12:36,1.000,
    Until: 24:00,0.000,
    Through: 8/27,
    For: AllDays,
    Until: 01:29,0.000,
    Until: 01:31,1.000,
    Until: 02:16,0.048,
    Until: 02:21,1.000,
    Until: 02:34,0.000,
    Until: 02:36,1.000,
    Until: 03:21,0.048,
    Until: 03:26,1.000,
    Until: 06:50,0.000,
    Until: 06:52,1.000,
    Until: 07:37,0.048,
    Until: 07:42,1.000,
    Until: 10:42,0.000,
    Until: 10:44,1.000,
    Until: 11:29,0.048,
    Until: 11:34,1.000,
    Until: 17:18,0.000,
    Until: 17:20,1.000,
    Until: 18:05,0.048,
    Until: 18:10,1.000,
    Until: 24:00,0.000,
    Through: 8/28,
    For: AllDays,
    Until: 02:15,0.000,
    Until: 02:17,1.000,
    Until: 03:02,0.048,
    Until: 03:07,1.000,
    Until: 04:15,0.000,
    Until: 04:17,1.000,
    Until: 05:02,0.048,
    Until: 05:07,1.000,
    Until: 06:22,0.000,
    Until: 06:24,1.000,
    Until: 07:09,0.048,
    Until: 07:14,1.000,
    Until: 07:26,0.000,
    Until: 07:28,1.000,
    Until: 08:13,0.048,
    Until: 08:18,1.000,
    Until: 12:09,0.000,
    Until: 12:11,1.000,
    Until: 12:56,0.048,
    Until: 13:01,1.000,
    Until: 24:00,0.000,
    Through: 8/29,
    For: AllDays,
    Until: 24:00,0.000,
    Through: 8/30,
    For: AllDays,
    Until: 24:00,0.000,
    Through: 8/31,
    For: AllDays,
    Until: 04:08,0.000,
    Until: 04:10,1.000,
    Until: 04:55,0.048,
    Until: 05:00,1.000,
    Until: 08:55,0.000,
    Until: 08:57,1.000,
    Until: 09:42,0.048,
    Until: 09:47,1.000,
    Until: 10:45,0.000,
    Until: 10:47,1.000,
    Until: 11:32,0.048,
    Until: 11:37,1.000,
    Until: 11:54,0.000,
    Until: 11:56,1.000,
    Until: 12:41,0.048,
    Until: 12:46,1.000,
    Until: 24:00,0.000,
    Through: 9/1,
    For: AllDays,
    Until: 01:38,0.000,
    Until: 01:40,1.000,
    Until: 02:25,0.048,
    Until: 02:30,1.000,
    Until: 07:33,0.000,
    Until: 07:35,1.000,
    Until: 08:20,0.048,
    Until: 08:25,1.000,
    Until: 11:44,0.000,
    Until: 11:46,1.000,
    Until: 12:31,0.048,
    Until: 12:36,1.000,
    Until: 24:00,0.000,
    Through: 9/2,
    For: AllDays,
    Until: 02:58,0.000,
    Until: 03:00,1.000,
    Until: 03:45,0.048,
    Until: 03:50,1.000,
    Until: 03:56,0.000,
    Until: 03:58,1.000,
    Until: 04:43,0.048,
    Until: 04:48,1.000,
    Until: 11:46,0.000,
    Until: 11:48,1.000,
    Until: 12:33,0.048,
    Until: 12:38,1.000,
    Until: 24:00,0.000,
    Through: 9/3,
    For: AllDays,
    Until: 01:43,0.000,
    Until: 01:45,1.000,
    Until: 02:30,0.048,
    Until: 02:35,1.000,
    Until: 02:36,0.000,
    Until: 02:38,1.000,
    Until: 03:23,0.048,
    Until: 03:28,1.000,
    Until: 06:57,0.000,
    Until: 06:59,1.000,
    Until: 07:44,0.048,
    Until: 07:49,1.000,
    Until: 11:29,0.000,
    Until: 11:31,1.000,
    Until: 12:16,0.048,
    Until: 12:21,1.000,
    Until: 16:57,0.000,
    Until: 16:59,1.000,
    Until: 17:44,0.048,
    Until: 17:49,1.000,
    Until: 24:00,0.000,
    Through: 9/4,
    For: AllDays,
    Until: 00:30,0.000,
    Until: 00:32,1.000,
    Until: 01:17,0.048,
    Until: 01:22,1.000,
    Until: 06:34,0.000,
    Until: 06:36,1.000,
    Until: 07:21,0.048,
    Until: 07:26,1.000,
    Until: 12:31,0.000,
    Until: 12:33,1.000,
    Until: 13:18,0.048,
    Until: 13:23,1.000,
    Until: 17:01,0.000,
    Until: 17:03,1.000,
    Until: 17:48,0.048,
    Until: 17:53,1.000,
    Until: 24:00,0.000,
    Through: 9/5,
    For: AllDays,
    Until: 24:00,0.000,
    Through: 9/6,
    For: AllDays,
    Until: 24:00,0.000,
    Through: 9/7,
    For: AllDays,
    Until: 00:23,0.000,
    Until: 00:25,1.000,
    Until: 01:10,0.048,
    Until: 01:15,1.000,
    Until: 03:03,0.000,
    Until: 03:05,1.000,
    Until: 03:50,0.048,
    Until: 03:55,1.000,
    Until: 07:32,0.000,
    Until: 07:34,1.000,
    Until: 08:19,0.048,
    Until: 08:24,1.000,
    Until: 08:26,0.000,
    Until: 08:28,1.000,
    Until: 09:13,0.048,
    Until: 09:18,1.000,
    Until: 12:18,0.000,
    Until: 12:20,1.000,
    Until: 13:05,0.048,
    Until: 13:10,1.000,
    Until: 13:21,0.000,
    Until: 13:23,1.000,
    Until: 14:08,0.048,
    Until: 14:13,1.000,
    Until: 24:00,0.000,
    Through: 9/8,
    For: AllDays,
    Until: 00:55,0.000,
    Until: 00:57,1.000,
    Until: 01:42,0.048,
    Until: 01:47,1.000,
    Until: 02:01,0.000,
    Until: 02:03,1.000,
    Until: 02:48,0.048,
    Until: 02:53,1.000,
    Until: 03:40,0.000,
    Until: 03:42,1.000,
    Until: 04:27,0.048,
    Until: 04:32,1.000,
    Until: 07:03,0.000,
    Until: 07:05,1.000,
    Until: 07:50,0.048,
    Until: 07:55,1.000,
    Until: 11:29,0.000,
    Until: 11:31,1.000,
    Until: 12:16,0.048,
    Until: 12:21,1.000,
    Until: 12:38,0.000,
    Until: 12:40,1.000,
    Until: 13:25,0.048,
    Until: 13:30,1.000,
    Until: 24:00,0.000,
    Through: 9/9,
    For: AllDays,
    Until: 02:16,0.000,
    Until: 02:18,1.000,
    Until: 03:03,0.048,
    Until: 03:08,1.000,
    Until: 03:09,0.000,
    Until: 03:11,1.000,
    Until: 03:56,0.048,
    Until: 04:01,1.000,
    Until: 04:12,0.000,
    Until: 04:14,1.000,
    Until: 04:59,0.048,
    Until: 05:04,1.000,
    Until: 06:04,0.000,
    Until: 06:06,1.000,
    Until: 06:51,0.048,
    Until: 06:56,1.000,
    Until: 07:43,0.000,
    Until: 07:45,1.000,
    Until: 08:30,0.048,
    Until: 08:35,1.000,
    Until: 12:41,0.000,
    Until: 12:43,1.000,
    Until: 13:28,0.048,
    Until: 13:33,1.000,
    Until: 18:00,0.000,
    Until: 18:02,1.000,
    Until: 18:47,0.048,
    Until: 18:52,1.000,
    Until: 24:00,0.000,
    Through: 9/10,
    For: AllDays,
    Until: 02:32,0.000,
    Until: 02:34,1.000,
    Until: 03:19,0.048,
    Until: 03:24,1.000,
    Until: 03:46,0.000,
    Until: 03:48,1.000,
    Until: 04:33,0.048,
    Until: 04:38,1.000,
    Until: 11:55,0.000,
    Until: 11:57,1.000,
    Until: 12:42,0.048,
    Until: 12:47,1.000,
    Until: 13:41,0.000,
    Until: 13:43,1.000,
    Until: 14:28,0.048,
    Until: 14:33,1.000,
    Until: 24:00,0.000,
    Through: 9/11,
    For: AllDays,
    Until: 01:41,0.000,
    Until: 01:43,1.000,
    Until: 02:28,0.048,
    Until: 02:33,1.000,
    Until: 02:34,0.000,
    Until: 02:36,1.000,
    Until: 03:21,0.048,
    Until: 03:26,1.000,
    Until: 03:52,0.000,
    Until: 03:54,1.000,
    Until: 04:39,0.048,
    Until: 04:44,1.000,
    Until: 12:51,0.000,
    Until: 12:53,1.000,
    Until: 13:38,0.048,
    Until: 13:43,1.000,
    Until: 24:00,0.000,
    Through: 9/12,
    For: AllDays,
    Until: 24:00,0.000,
    Through: 9/13,
    For: AllDays,
    Until: 24:00,0.000,
    Through: 9/14,
    For: AllDays,
    Until: 03:04,0.000,
    Until: 03:06,1.000,
    Until: 03:51,0.048,
    Until: 03:56,1.000,
    Until: 03:57,0.000,
    Until: 03:59,1.000,
    Until: 04:44,0.048,
    Until: 04:49,1.000,
    Until: 08:08,0.000,
    Until: 08:10,1.000,
    Until: 08:55,0.048,
    Until: 09:00,1.000,
    Until: 10:41,0.000,
    Until: 10:43,1.000,
    Until: 11:28,0.048,
    Until: 11:33,1.000,
    Until: 12:22,0.000,
    Until: 12:24,1.000,
    Until: 13:09,0.048,
    Until: 13:14,1.000,
    Until: 18:05,0.000,
    Until: 18:07,1.000,
    Until: 18:52,0.048,
    Until: 18:57,1.000,
    Until: 24:00,0.000,
    Through: 9/15,
    For: AllDays,
    Until: 00:52,0.000,
    Until: 00:54,1.000,
    Until: 01:39,0.048,
    Until: 01:44,1.000,
    Until: 02:13,0.000,
    Until: 02:15,1.000,
    Until: 03:00,0.048,
    Until: 03:05,1.000,
    Until: 03:33,0.000,
    Until: 03:35,1.000,
    Until: 04:20,0.048,
    Until: 04:25,1.000,
    Until: 07:11,0.000,
    Until: 07:13,1.000,
    Until: 07:58,0.048,
    Until: 08:03,1.000,
    Until: 11:50,0.000,
    Until: 11:52,1.000,
    Until: 12:37,0.048,
    Until: 12:42,1.000,
    Until: 12:43,0.000,
    Until: 12:45,1.000,
    Until: 13:30,0.048,
    Until: 13:35,1.000,
    Until: 24:00,0.000,
    Through: 9/16,
    For: AllDays,
    Until: 02:03,0.000,
    Until: 02:05,1.000,
    Until: 02:50,0.048,
    Until: 02:55,1.000,
    Until: 03:20,0.000,
    Until: 03:22,1.000,
    Until: 04:07,0.048,
    Until: 04:12,1.000,
    Until: 11:47,0.000,
    Until: 11:49,1.000,
    Until: 12:34,0.048,
    Until: 12:39,1.000,
    Until: 13:25,0.000,
    Until: 13:27,1.000,
    Until: 14:12,0.048,
    Until: 14:17,1.000,
    Until: 18:53,0.000,
    Until: 18:55,1.000,
    Until: 19:40,0.048,
    Until: 19:45,1.000,
    Until: 24:00,0.000,
    Through: 9/17,
    For: AllDays,
    Until: 02:40,0.000,
    Until: 02:42,1.000,
    Until: 03:27,0.048,
    Until: 03:32,1.000,
    Until: 03:36,0.000,
    Until: 03:38,1.000,
    Until: 04:23,0.048,
    Until: 04:28,1.000,
    Until: 07:00,0.000,
    Until: 07:02,1.000,
    Until: 07:47,0.048,
    Until: 07:52,1.000,
    Until: 08:22,0.000,
    Until: 08:24,1.000,
    Until: 09:09,0.048,
    Until: 09:14,1.000,
    Until: 11:00,0.000,
    Until: 11:02,1.000,
    Until: 11:47,0.048,
    Until: 11:52,1.000,
    Until: 12:36,0.000,
    Until: 12:38,1.000,
    Until: 13:23,0.048,
    Until: 13:28,1.000,
    Until: 13:30,0.000,
    Until: 13:32,1.000,
    Until: 14:17,0.048,
    Until: 14:22,1.000,
    Until: 24:00,0.000,
    Through: 9/18,
    For: AllDays,
    Until: 01:38,0.000,
    Until: 01:40,1.000,
    Until: 02:25,0.048,
    Until: 02:30,1.000,
    Until: 02:34,0.000,
    Until: 02:36,1.000,
    Until: 03:21,0.048,
    Until: 03:26,1.000,
    Until: 07:24,0.000,
    Until: 07:26,1.000,
    Until: 08:11,0.048,
    Until: 08:16,1.000,
    Until: 08:21,0.000,
    Until: 08:23,1.000,
    Until: 09:08,0.048,
    Until: 09:13,1.000,
    Until: 10:59,0.000,
    Until: 11:01,1.000,
    Until: 11:46,0.048,
    Until: 11:51,1.000,
    Until: 11:52,0.000,
    Until: 11:54,1.000,
    Until: 12:39,0.048,
    Until: 12:44,1.000,
    Until: 24:00,0.000,
    Through: 9/19,
    For: AllDays,
    Until: 24:00,0.000,
    Through: 9/20,
    For: AllDays,
    Until: 24:00,0.000,
    Through: 9/21,
    For: AllDays,
    Until: 00:08,0.000,
    Until: 00:10,1.000,
    Until: 00:55,0.048,
    Until: 01:00,1.000,
    Until: 02:01,0.000,
    Until: 02:03,1.000,
    Until: 02:48,0.048,
    Until: 02:53,1.000,
    Until: 06:14,0.000,
    Until: 06:16,1.000,
    Until: 07:01,0.048,
    Until: 07:06,1.000,
    Until: 12:24,0.000,
    Until: 12:26,1.000,
    Until: 13:11,0.048,
    Until: 13:16,1.000,
    Until: 24:00,0.000,
    Through: 9/22,
    For: AllDays,
    Until: 00:35,0.000,
    Until: 00:37,1.000,
    Until: 01:22,0.048,
    Until: 01:27,1.000,
    Until: 01:37,0.000,
    Until: 01:39,1.000,
    Until: 02:24,0.048,
    Until: 02:29,1.000,
    Until: 12:47,0.000,
    Until: 12:49,1.000,
    Until: 13:34,0.048,
    Until: 13:39,1.000,
    Until: 13:40,0.000,
    Until: 13:42,1.000,
    Until: 14:27,0.048,
    Until: 14:32,1.000,
    Until: 17:02,0.000,
    Until: 17:04,1.000,
    Until: 17:49,0.048,
    Until: 17:54,1.000,
    Until: 24:00,0.000,
    Through: 9/23,
    For: AllDays,
    Until: 00:53,0.000,
    Until: 00:55,1.000,
    Until: 01:40,0.048,
    Until: 01:45,1.000,
    Until: 02:23,0.000,
    Until: 02:25,1.000,
    Until: 03:10,0.048,
    Until: 03:15,1.000,
    Until: 04:01,0.000,
    Until: 04:03,1.000,
    Until: 04:48,0.048,
    Until: 04:53,1.000,
    Until: 13:28,0.000,
    Until: 13:30,1.000,
    Until: 14:15,0.048,
    Until: 14:20,1.000,
    Until: 16:29,0.000,
    Until: 16:31,1.000,
    Until: 17:16,0.048,
    Until: 17:21,1.000,
    Until: 17:25,0.000,
    Until: 17:27,1.000,
    Until: 18:12,0.048,
    Until: 18:17,1.000,
    Until: 24:00,0.000,
    Through: 9/24,
    For: AllDays,
    Until: 01:04,0.000,
    Until: 01:06,1.000,
    Until: 01:51,0.048,
    Until: 01:56,1.000,
    Until: 01:57,0.000,
    Until: 01:59,1.000,
    Until: 02:44,0.048,
    Until: 02:49,1.000,
    Until: 07:58,0.000,
    Until: 08:00,1.000,
    Until: 08:45,0.048,
    Until: 08:50,1.000,
    Until: 10:30,0.000,
    Until: 10:32,1.000,
    Until: 11:17,0.048,
    Until: 11:22,1.000,
    Until: 24:00,0.000,
    Through: 9/25,
    For: AllDays,
    Until: 02:48,0.000,
    Until: 02:50,1.000,
    Until: 03:35,0.048,
    Until: 03:40,1.000,
    Until: 03:41,0.000,
    Until: 03:43,1.000,
    Until: 04:28,0.048,
    Until: 04:33,1.000,
    Until: 04:39,0.000,
    Until: 04:41,1.000,
    Until: 05:26,0.048,
    Until: 05:31,1.000,
    Until: 05:36,0.000,
    Until: 05:38,1.000,
    Until: 06:23,0.048,
    Until: 06:28,1.000,
    Until: 11:18,0.000,
    Until: 11:20,1.000,
    Until: 12:05,0.048,
    Until: 12:10,1.000,
    Until: 15:51,0.000,
    Until: 15:53,1.000,
    Until: 16:38,0.048,
    Until: 16:43,1.000,
    Until: 24:00,0.000,
    Through: 9/26,
    For: AllDays,
    Until: 24:00,0.000,
    Through: 9/27,
    For: AllDays,
    Until: 24:00,0.000,
    Through: 9/28,
    For: AllDays,
    Until: 00:41,0.000,
    Until: 00:43,1.000,
    Until: 01:28,0.048,
    Until: 01:33,1.000,
    Until: 07:09,0.000,
    Until: 07:11,1.000,
    Until: 07:56,0.048,
    Until: 08:01,1.000,
    Until: 24:00,0.000,
    Through: 9/29,
    For: AllDays,
    Until: 01:36,0.000,
    Until: 01:38,1.000,
    Until: 02:23,0.048,
    Until: 02:28,1.000,
    Until: 02:29,0.000,
    Until: 02:31,1.000,
    Until: 03:16,0.048,
    Until: 03:21,1.000,
    Until: 07:56,0.000,
    Until: 07:58,1.000,
    Until: 08:43,0.048,
    Until: 08:48,1.000,
    Until: 10:17,0.000,
    Until: 10:19,1.000,
    Until: 11:04,0.048,
    Until: 11:09,1.000,
    Until: 11:45,0.000,
    Until: 11:47,1.000,
    Until: 12:32,0.048,
    Until: 12:37,1.000,
    Until: 16:45,0.000,
    Until: 16:47,1.000,
    Until: 17:32,0.048,
    Until: 17:37,1.000,
    Until: 24:00,0.000,
    Through: 9/30,
    For: AllDays,
    Until: 00:50,0.000,
    Until: 00:52,1.000,
    Until: 01:37,0.048,
    Until: 01:42,1.000,
    Until: 01:43,0.000,
    Until: 01:45,1.000,
    Until: 02:30,0.048,
    Until: 02:35,1.000,
    Until: 02:50,0.000,
    Until: 02:52,1.000,
    Until: 03:37,0.048,
    Until: 03:42,1.000,
    Until: 06:58,0.000,
    Until: 07:00,1.000,
    Until: 07:45,0.048,
    Until: 07:50,1.000,
    Until: 12:59,0.000,
    Until: 13:01,1.000,
    Until: 13:46,0.048,
    Until: 13:51,1.000,
    Until: 16:44,0.000,
    Until: 16:46,1.000,
    Until: 17:31,0.048,
    Until: 17:36,1.000,
    Until: 24:00,0.000,
    Through: 10/1,
    For: AllDays,
    Until: 01:04,0.000,
    Until: 01:06,1.000,
    Until: 01:51,0.048,
    Until: 01:56,1.000,
    Until: 02:17,0.000,
    Until: 02:19,1.000,
    Until: 03:04,0.048,
    Until: 03:09,1.000,
    Until: 07:04,0.000,
    Until: 07:06,1.000,
    Until: 07:51,0.048,
    Until: 07:56,1.000,
    Until: 11:19,0.000,
    Until: 11:21,1.000,
    Until: 12:06,0.048,
    Until: 12:11,1.000,
    Until: 12:32,0.000,
    Until: 12:34,1.000,
    Until: 13:19,0.048,
    Until: 13:24,1.000,
    Until: 24:00,0.000,
    Through: 10/2,
    For: AllDays,
    Until: 01:21,0.000,
    Until: 01:23,1.000,
    Until: 02:08,0.048,
    Until: 02:13,1.000,
    Until: 02:15,0.000,
    Until: 02:17,1.000,
    Until: 03:02,0.048,
    Until: 03:07,1.000,
    Until: 10:47,0.000,
    Until: 10:49,1.000,
    Until: 11:34,0.048,
    Until: 11:39,1.000,
    Until: 24:00,0.000,
    Through: 10/3,
    For: AllDays,
    Until: 24:00,0.000,
    Through: 10/4,
    For: AllDays,
    Until: 24:00,0.000,
    Through: 10/5,
    For: AllDays,
    Until: 00:59,0.000,
    Until: 01:01,1.000,
    Until: 01:46,0.048,
    Until: 01:51,1.000,
    Until: 02:56,0.000,
    Until: 02:58,1.000,
    Until: 03:43,0.048,
    Until: 03:48,1.000,
    Until: 06:59,0.000,
    Until: 07:01,1.000,
    Until: 07:46,0.048,
    Until: 07:51,1.000,
    Until: 14:14,0.000,
    Until: 14:16,1.000,
    Until: 15:01,0.048,
    Until: 15:06,1.000,
    Until: 24:00,0.000,
    Through: 10/6,
    For: AllDays,
    Until: 02:25,0.000,
    Until: 02:27,1.000,
    Until: 03:12,0.048,
    Until: 03:17,1.000,
    Until: 03:18,0.000,
    Until: 03:20,1.000,
    Until: 04:05,0.048,
    Until: 04:10,1.000,
    Until: 06:30,0.000,
    Until: 06:32,1.000,
    Until: 07:17,0.048,
    Until: 07:22,1.000,
    Until: 10:57,0.000,
    Until: 10:59,1.000,
    Until: 11:44,0.048,
    Until: 11:49,1.000,
    Until: 24:00,0.000,
    Through: 10/7,
    For: AllDays,
    Until: 02:07,0.000,
    Until: 02:09,1.000,
    Until: 02:54,0.048,
    Until: 02:59,1.000,
    Until: 03:00,0.000,
    Until: 03:02,1.000,
    Until: 03:47,0.048,
    Until: 03:52,1.000,
    Until: 07:33,0.000,
    Until: 07:35,1.000,
    Until: 08:20,0.048,
    Until: 08:25,1.000,
    Until: 08:39,0.000,
    Until: 08:41,1.000,
    Until: 09:26,0.048,
    Until: 09:31,1.000,
    Until: 10:34,0.000,
    Until: 10:36,1.000,
    Until: 11:21,0.048,
    Until: 11:26,1.000,
    Until: 11:34,0.000,
    Until: 11:36,1.000,
    Until: 12:21,0.048,
    Until: 12:26,1.000,
    Until: 24:00,0.000,
    Through: 10/8,
    For: AllDays,
    Until: 01:50,0.000,
    Until: 01:52,1.000,
    Until: 02:37,0.048,
    Until: 02:42,1.000,
    Until: 13:03,0.000,
    Until: 13:05,1.000,
    Until: 13:50,0.048,
    Until: 13:55,1.000,
    Until: 24:00,0.000,
    Through: 10/9,
    For: AllDays,
    Until: 01:03,0.000,
    Until: 01:05,1.000,
    Until: 01:50,0.048,
    Until: 01:55,1.000,
    Until: 04:19,0.000,
    Until: 04:21,1.000,
    Until: 05:06,0.048,
    Until: 05:11,1.000,
    Until: 06:38,0.000,
    Until: 06:40,1.000,
    Until: 07:25,0.048,
    Until: 07:30,1.000,
    Until: 11:03,0.000,
    Until: 11:05,1.000,
    Until: 11:50,0.048,
    Until: 11:55,1.000,
    Until: 12:23,0.000,
    Until: 12:25,1.000,
    Until: 13:10,0.048,
    Until: 13:15,1.000,
    Until: 24:00,0.000,
    Through: 10/10,
    For: AllDays,
    Until: 24:00,0.000,
    Through: 10/11,
    For: AllDays,
    Until: 24:00,0.000,
    Through: 10/12,
    For: AllDays,
    Until: 02:34,0.000,
    Until: 02:36,1.000,
    Until: 03:21,0.048,
    Until: 03:26,1.000,
    Until: 03:27,0.000,
    Until: 03:29,1.000,
    Until: 04:14,0.048,
    Until: 04:19,1.000,
    Until: 04:20,0.000,
    Until: 04:22,1.000,
    Until: 05:07,0.048,
    Until: 05:12,1.000,
    Until: 06:37,0.000,
    Until: 06:39,1.000,
    Until: 07:24,0.048,
    Until: 07:29,1.000,
    Until: 07:41,0.000,
    Until: 07:43,1.000,
    Until: 08:28,0.048,
    Until: 08:33,1.000,
    Until: 10:26,0.000,
    Until: 10:28,1.000,
    Until: 11:13,0.048,
    Until: 11:18,1.000,
    Until: 12:19,0.000,
    Until: 12:21,1.000,
    Until: 13:06,0.048,
    Until: 13:11,1.000,
    Until: 17:18,0.000,
    Until: 17:20,1.000,
    Until: 18:05,0.048,
    Until: 18:10,1.000,
    Until: 24:00,0.000,
    Through: 10/13,
    For: AllDays,
    Until: 02:28,0.000,
    Until: 02:30,1.000,
    Until: 03:15,0.048,
    Until: 03:20,1.000,
    Until: 03:21,0.000,
    Until: 03:23,1.000,
    Until: 04:08,0.048,
    Until: 04:13,1.000,
    Until: 11:18,0.000,
    Until: 11:20,1.000,
    Until: 12:05,0.048,
    Until: 12:10,1.000,
    Until: 13:14,0.000,
    Until: 13:16,1.000,
    Until: 14:01,0.048,
    Until: 14:06,1.000,
    Until: 24:00,0.000,
    Through: 10/14,
    For: AllDays,
    Until: 00:56,0.000,
    Until: 00:58,1.000,
    Until: 01:43,0.048,
    Until: 01:48,1.000,
    Until: 01:52,0.000,
    Until: 01:54,1.000,
    Until: 02:39,0.048,
    Until: 02:44,1.000,
    Until: 03:21,0.000,
    Until: 03:23,1.000,
    Until: 04:08,0.048,
    Until: 04:13,1.000,
    Until: 11:15,0.000,
    Until: 11:17,1.000,
    Until: 12:02,0.048,
    Until: 12:07,1.000,
    Until: 24:00,0.000,
    Through: 10/15,
    For: AllDays,
    Until: 01:16,0.000,
    Until: 01:18,1.000,
    Until: 02:03,0.048,
    Until: 02:08,1.000,
    Until: 02:10,0.000,
    Until: 02:12,1.000,
    Until: 02:57,0.048,
    Until: 03:02,1.000,
    Until: 12:48,0.000,
    Until: 12:50,1.000,
    Until: 13:35,0.048,
    Until: 13:40,1.000,
    Until: 24:00,0.000,
    Through: 10/16,
    For: AllDays,
    Until: 02:10,0.000,
    Until: 02:12,1.000,
    Until: 02:57,0.048,
    Until: 03:02,1.000,
    Until: 03:03,0.000,
    Until: 03:05,1.000,
    Until: 03:50,0.048,
    Until: 03:55,1.000,
    Until: 04:03,0.000,
    Until: 04:05,1.000,
    Until: 04:50,0.048,
    Until: 04:55,1.000,
    Until: 06:31,0.000,
    Until: 06:33,1.000,
    Until: 07:18,0.048,
    Until: 07:23,1.000,
    Until: 13:28,0.000,
    Until: 13:30,1.000,
    Until: 14:15,0.048,
    Until: 14:20,1.000,
    Until: 16:57,0.000,
    Until: 16:59,1.000,
    Until: 17:44,0.048,
    Until: 17:49,1.000,
    Until: 24:00,0.000,
    Through: 10/17,
    For: AllDays,
    Until: 24:00,0.000,
    Through: 10/18,
    For: AllDays,
    Until: 24:00,0.000,
    Through: 10/19,
    For: AllDays,
    Until: 01:18,0.000,
    Until: 01:20,1.000,
    Until: 02:05,0.048,
    Until: 02:10,1.000,
    Until: 02:11,0.000,
    Until: 02:13,1.000,
    Until: 02:58,0.048,
    Until: 03:03,1.000,
    Until: 03:04,0.000,
    Until: 03:06,1.000,
    Until: 03:51,0.048,
    Until: 03:56,1.000,
    Until: 08:39,0.000,
    Until: 08:41,1.000,
    Until: 09:26,0.048,
    Until: 09:31,1.000,
    Until: 11:03,0.000,
    Until: 11:05,1.000,
    Until: 11:50,0.048,
    Until: 11:55,1.000,
    Until: 12:53,0.000,
    Until: 12:55,1.000,
    Until: 13:40,0.048,
    Until: 13:45,1.000,
    Until: 24:00,0.000,
    Through: 10/20,
    For: AllDays,
    Until: 02:54,0.000,
    Until: 02:56,1.000,
    Until: 03:41,0.048,
    Until: 03:46,1.000,
    Until: 03:47,0.000,
    Until: 03:49,1.000,
    Until: 04:34,0.048,
    Until: 04:39,1.000,
    Until: 06:24,0.000,
    Until: 06:26,1.000,
    Until: 07:11,0.048,
    Until: 07:16,1.000,
    Until: 11:08,0.000,
    Until: 11:10,1.000,
    Until: 11:55,0.048,
    Until: 12:00,1.000,
    Until: 13:04,0.000,
    Until: 13:06,1.000,
    Until: 13:51,0.048,
    Until: 13:56,1.000,
    Until: 16:49,0.000,
    Until: 16:51,1.000,
    Until: 17:36,0.048,
    Until: 17:41,1.000,
    Until: 24:00,0.000,
    Through: 10/21,
    For: AllDays,
    Until: 00:42,0.000,
    Until: 00:44,1.000,
    Until: 01:29,0.048,
    Until: 01:34,1.000,
    Until: 02:42,0.000,
    Until: 02:44,1.000,
    Until: 03:29,0.048,
    Until: 03:34,1.000,
    Until: 03:49,0.000,
    Until: 03:51,1.000,
    Until: 04:36,0.048,
    Until: 04:41,1.000,
    Until: 04:42,0.000,
    Until: 04:44,1.000,
    Until: 05:29,0.048,
    Until: 05:34,1.000,
    Until: 06:33,0.000,
    Until: 06:35,1.000,
    Until: 07:20,0.048,
    Until: 07:25,1.000,
    Until: 17:47,0.000,
    Until: 17:49,1.000,
    Until: 18:34,0.048,
    Until: 18:39,1.000,
    Until: 24:00,0.000,
    Through: 10/22,
    For: AllDays,
    Until: 01:54,0.000,
    Until: 01:56,1.000,
    Until: 02:41,0.048,
    Until: 02:46,1.000,
    Until: 03:01,0.000,
    Until: 03:03,1.000,
    Until: 03:48,0.048,
    Until: 03:53,1.000,
    Until: 07:51,0.000,
    Until: 07:53,1.000,
    Until: 08:38,0.048,
    Until: 08:43,1.000,
    Until: 10:57,0.000,
    Until: 10:59,1.000,
    Until: 11:44,0.048,
    Until: 11:49,1.000,
    Until: 12:42,0.000,
    Until: 12:44,1.000,
    Until: 13:29,0.048,
    Until: 13:34,1.000,
    Until: 24:00,0.000,
    Through: 10/23,
    For: AllDays,
    Until: 01:29,0.000,
    Until: 01:31,1.000,
    Until: 02:16,0.048,
    Until: 02:21,1.000,
    Until: 02:22,0.000,
    Until: 02:24,1.000,
    Until: 03:09,0.048,
    Until: 03:14,1.000,
    Until: 03:15,0.000,
    Until: 03:17,1.000,
    Until: 04:02,0.048,
    Until: 04:07,1.000,
    Until: 08:44,0.000,
    Until: 08:46,1.000,
    Until: 09:31,0.048,
    Until: 09:36,1.000,
    Until: 10:38,0.000,
    Until: 10:40,1.000,
    Until: 11:25,0.048,
    Until: 11:30,1.000,
    Until: 12:59,0.000,
    Until: 13:01,1.000,
    Until: 13:46,0.048,
    Until: 13:51,1.000,
    Until: 24:00,0.000,
    Through: 10/24,
    For: AllDays,
    Until: 24:00,0.000,
    Through: 10/25,
    For: AllDays,
    Until: 24:00,0.000,
    Through: 10/26,
    For: AllDays,
    Until: 01:55,0.000,
    Until: 01:57,1.000,
    Until: 02:42,0.048,
    Until: 02:47,1.000,
    Until: 07:48,0.000,
    Until: 07:50,1.000,
    Until: 08:35,0.048,
    Until: 08:40,1.000,
    Until: 13:21,0.000,
    Until: 13:23,1.000,
    Until: 14:08,0.048,
    Until: 14:13,1.000,
    Until: 15:34,0.000,
    Until: 15:36,1.000,
    Until: 16:21,0.048,
    Until: 16:26,1.000,
    Until: 24:00,0.000,
    Through: 10/27,
    For: AllDays,
    Until: 00:52,0.000,
    Until: 00:54,1.000,
    Until: 01:39,0.048,
    Until: 01:44,1.000,
    Until: 02:01,0.000,
    Until: 02:03,1.000,
    Until: 02:48,0.048,
    Until: 02:53,1.000,
    Until: 10:30,0.000,
    Until: 10:32,1.000,
    Until: 11:17,0.048,
    Until: 11:22,1.000,
    Until: 12:45,0.000,
    Until: 12:47,1.000,
    Until: 13:32,0.048,
    Until: 13:37,1.000,
    Until: 17:17,0.000,
    Until: 17:19,1.000,
    Until: 18:04,0.048,
    Until: 18:09,1.000,
    Until: 24:00,0.000,
    Through: 10/28,
    For: AllDays,
    Until: 03:07,0.000,
    Until: 03:09,1.000,
    Until: 03:54,0.048,
    Until: 03:59,1.000,
    Until: 04:27,0.000,
    Until: 04:29,1.000,
    Until: 05:14,0.048,
    Until: 05:19,1.000,
    Until: 07:23,0.000,
    Until: 07:25,1.000,
    Until: 08:10,0.048,
    Until: 08:15,1.000,
    Until: 11:00,0.000,
    Until: 11:02,1.000,
    Until: 11:47,0.048,
    Until: 11:52,1.000,
    Until: 12:08,0.000,
    Until: 12:10,1.000,
    Until: 12:55,0.048,
    Until: 13:00,1.000,
    Until: 24:00,0.000,
    Through: 10/29,
    For: AllDays,
    Until: 01:30,0.000,
    Until: 01:32,1.000,
    Until: 02:17,0.048,
    Until: 02:22,1.000,
    Until: 03:46,0.000,
    Until: 03:48,1.000,
    Until: 04:33,0.048,
    Until: 04:38,1.000,
    Until: 07:00,0.000,
    Until: 07:02,1.000,
    Until: 07:47,0.048,
    Until: 07:52,1.000,
    Until: 10:55,0.000,
    Until: 10:57,1.000,
    Until: 11:42,0.048,
    Until: 11:47,1.000,
    Until: 13:38,0.000,
    Until: 13:40,1.000,
    Until: 14:25,0.048,
    Until: 14:30,1.000,
    Until: 24:00,0.000,
    Through: 10/30,
    For: AllDays,
    Until: 00:10,0.000,
    Until: 00:12,1.000,
    Until: 00:57,0.048,
    Until: 01:02,1.000,
    Until: 01:06,0.000,
    Until: 01:08,1.000,
    Until: 01:53,0.048,
    Until: 01:58,1.000,
    Until: 02:18,0.000,
    Until: 02:20,1.000,
    Until: 03:05,0.048,
    Until: 03:10,1.000,
    Until: 04:04,0.000,
    Until: 04:06,1.000,
    Until: 04:51,0.048,
    Until: 04:56,1.000,
    Until: 07:59,0.000,
    Until: 08:01,1.000,
    Until: 08:46,0.048,
    Until: 08:51,1.000,
    Until: 16:24,0.000,
    Until: 16:26,1.000,
    Until: 17:11,0.048,
    Until: 17:16,1.000,
    Until: 24:00,0.000,
    Through: 10/31,
    For: AllDays,
    Until: 24:00,0.000,
    Through: 11/1,
    For: AllDays,
    Until: 24:00,0.000,
    Through: 11/2,
    For: AllDays,
    Until: 03:23,0.000,
    Until: 03:25,1.000,
    Until: 04:10,0.048,
    Until: 04:15,1.000,
    Until: 08:21,0.000,
    Until: 08:23,1.000,
    Until: 09:08,0.048,
    Until: 09:13,1.000,
    Until: 12:37,0.000,
    Until: 12:39,1.000,
    Until: 13:24,0.048,
    Until: 13:29,1.000,
    Until: 24:00,0.000,
    Through: 11/3,
    For: AllDays,
    Until: 01:03,0.000,
    Until: 01:05,1.000,
    Until: 01:50,0.048,
    Until: 01:55,1.000,
    Until: 01:56,0.000,
    Until: 01:58,1.000,
    Until: 02:43,0.048,
    Until: 02:48,1.000,
    Until: 06:47,0.000,
    Until: 06:49,1.000,
    Until: 07:34,0.048,
    Until: 07:39,1.000,
    Until: 13:31,0.000,
    Until: 13:33,1.000,
    Until: 14:18,0.048,
    Until: 14:23,1.000,
    Until: 16:18,0.000,
    Until: 16:20,1.000,
    Until: 17:05,0.048,
    Until: 17:10,1.000,
    Until: 24:00,0.000,
    Through: 11/4,
    For: AllDays,
    Until: 02:03,0.000,
    Until: 02:05,1.000,
    Until: 02:50,0.048,
    Until: 02:55,1.000,
    Until: 03:32,0.000,
    Until: 03:34,1.000,
    Until: 04:19,0.048,
    Until: 04:24,1.000,
    Until: 07:31,0.000,
    Until: 07:33,1.000,
    Until: 08:18,0.048,
    Until: 08:23,1.000,
    Until: 10:13,0.000,
    Until: 10:15,1.000,
    Until: 11:00,0.048,
    Until: 11:05,1.000,
    Until: 24:00,0.000,
    Through: 11/5,
    For: AllDays,
    Until: 00:55,0.000,
    Until: 00:57,1.000,
    Until: 01:42,0.048,
    Until: 01:47,1.000,
    Until: 06:50,0.000,
    Until: 06:52,1.000,
    Until: 07:37,0.048,
    Until: 07:42,1.000,
    Until: 11:14,0.000,
    Until: 11:16,1.000,
    Until: 12:01,0.048,
    Until: 12:06,1.000,
    Until: 13:48,0.000,
    Until: 13:50,1.000,
    Until: 14:35,0.048,
    Until: 14:40,1.000,
    Until: 24:00,0.000,
    Through: 11/6,
    For: AllDays,
    Until: 03:00,0.000,
    Until: 03:02,1.000,
    Until: 03:47,0.048,
    Until: 03:52,1.000,
    Until: 04:15,0.000,
    Until: 04:17,1.000,
    Until: 05:02,0.048,
    Until: 05:07,1.000,
    Until: 08:24,0.000,
    Until: 08:26,1.000,
    Until: 09:11,0.048,
    Until: 09:16,1.000,
    Until: 12:40,0.000,
    Until: 12:42,1.000,
    Until: 13:27,0.048,
    Until: 13:32,1.000,
    Until: 24:00,0.000,
    Through: 11/7,
    For: AllDays,
    Until: 24:00,0.000,
    Through: 11/8,
    For: AllDays,
    Until: 24:00,0.000,
    Through: 11/9,
    For: AllDays,
    Until: 01:29,0.000,
    Until: 01:31,1.000,
    Until: 02:16,0.048,
    Until: 02:21,1.000,
    Until: 02:58,0.000,
    Until: 03:00,1.000,
    Until: 03:45,0.048,
    Until: 03:50,1.000,
    Until: 05:47,0.000,
    Until: 05:49,1.000,
    Until: 06:34,0.048,
    Until: 06:39,1.000,
    Until: 11:41,0.000,
    Until: 11:43,1.000,
    Until: 12:28,0.048,
    Until: 12:33,1.000,
    Until: 12:51,0.000,
    Until: 12:53,1.000,
    Until: 13:38,0.048,
    Until: 13:43,1.000,
    Until: 16:56,0.000,
    Until: 16:58,1.000,
    Until: 17:43,0.048,
    Until: 17:48,1.000,
    Until: 24:00,0.000,
    Through: 11/10,
    For: AllDays,
    Until: 00:31,0.000,
    Until: 00:33,1.000,
    Until: 01:18,0.048,
    Until: 01:23,1.000,
    Until: 02:31,0.000,
    Until: 02:33,1.000,
    Until: 03:18,0.048,
    Until: 03:23,1.000,
    Until: 15:13,0.000,
    Until: 15:15,1.000,
    Until: 16:00,0.048,
    Until: 16:05,1.000,
    Until: 24:00,0.000,
    Through: 11/11,
    For: AllDays,
    Until: 04:07,0.000,
    Until: 04:09,1.000,
    Until: 04:54,0.048,
    Until: 04:59,1.000,
    Until: 06:40,0.000,
    Until: 06:42,1.000,
    Until: 07:27,0.048,
    Until: 07:32,1.000,
    Until: 24:00,0.000,
    Through: 11/12,
    For: AllDays,
    Until: 02:21,0.000,
    Until: 02:23,1.000,
    Until: 03:08,0.048,
    Until: 03:13,1.000,
    Until: 03:32,0.000,
    Until: 03:34,1.000,
    Until: 04:19,0.048,
    Until: 04:24,1.000,
    Until: 08:30,0.000,
    Until: 08:32,1.000,
    Until: 09:17,0.048,
    Until: 09:22,1.000,
    Until: 12:11,0.000,
    Until: 12:13,1.000,
    Until: 12:58,0.048,
    Until: 13:03,1.000,
    Until: 24:00,0.000,
    Through: 11/13,
    For: AllDays,
    Until: 02:05,0.000,
    Until: 02:07,1.000,
    Until: 02:52,0.048,
    Until: 02:57,1.000,
    Until: 08:39,0.000,
    Until: 08:41,1.000,
    Until: 09:26,0.048,
    Until: 09:31,1.000,
    Until: 10:56,0.000,
    Until: 10:58,1.000,
    Until: 11:43,0.048,
    Until: 11:48,1.000,
    Until: 24:00,0.000,
    Through: 11/14,
    For: AllDays,
    Until: 24:00,0.000,
    Through: 11/15,
    For: AllDays,
    Until: 24:00,0.000,
    Through: 11/16,
    For: AllDays,
    Until: 02:34,0.000,
    Until: 02:36,1.000,
    Until: 03:21,0.048,
    Until: 03:26,1.000,
    Until: 03:27,0.000,
    Until: 03:29,1.000,
    Until: 04:14,0.048,
    Until: 04:19,1.000,
    Until: 05:23,0.000,
    Until: 05:25,1.000,
    Until: 06:10,0.048,
    Until: 06:15,1.000,
    Until: 10:44,0.000,
    Until: 10:46,1.000,
    Until: 11:31,0.048,
    Until: 11:36,1.000,
    Until: 12:09,0.000,
    Until: 12:11,1.000,
    Until: 12:56,0.048,
    Until: 13:01,1.000,
    Until: 16:30,0.000,
    Until: 16:32,1.000,
    Until: 17:17,0.048,
    Until: 17:22,1.000,
    Until: 24:00,0.000,
    Through: 11/17,
    For: AllDays,
    Until: 01:58,0.000,
    Until: 02:00,1.000,
    Until: 02:45,0.048,
    Until: 02:50,1.000,
    Until: 02:51,0.000,
    Until: 02:53,1.000,
    Until: 03:38,0.048,
    Until: 03:43,1.000,
    Until: 07:37,0.000,
    Until: 07:39,1.000,
    Until: 08:24,0.048,
    Until: 08:29,1.000,
    Until: 11:36,0.000,
    Until: 11:38,1.000,
    Until: 12:23,0.048,
    Until: 12:28,1.000,
    Until: 15:38,0.000,
    Until: 15:40,1.000,
    Until: 16:25,0.048,
    Until: 16:30,1.000,
    Until: 24:00,0.000,
    Through: 11/18,
    For: AllDays,
    Until: 00:37,0.000,
    Until: 00:39,1.000,
    Until: 01:24,0.048,
    Until: 01:29,1.000,
    Until: 05:06,0.000,
    Until: 05:08,1.000,
    Until: 05:53,0.048,
    Until: 05:58,1.000,
    Until: 07:07,0.000,
    Until: 07:09,1.000,
    Until: 07:54,0.048,
    Until: 07:59,1.000,
    Until: 13:36,0.000,
    Until: 13:38,1.000,
    Until: 14:23,0.048,
    Until: 14:28,1.000,
    Until: 24:00,0.000,
    Through: 11/19,
    For: AllDays,
    Until: 02:44,0.000,
    Until: 02:46,1.000,
    Until: 03:31,0.048,
    Until: 03:36,1.000,
    Until: 04:02,0.000,
    Until: 04:04,1.000,
    Until: 04:49,0.048,
    Until: 04:54,1.000,
    Until: 08:57,0.000,
    Until: 08:59,1.000,
    Until: 09:44,0.048,
    Until: 09:49,1.000,
    Until: 11:23,0.000,
    Until: 11:25,1.000,
    Until: 12:10,0.048,
    Until: 12:15,1.000,
    Until: 24:00,0.000,
    Through: 11/20,
    For: AllDays,
    Until: 01:06,0.000,
    Until: 01:08,1.000,
    Until: 01:53,0.048,
    Until: 01:58,1.000,
    Until: 03:19,0.000,
    Until: 03:21,1.000,
    Until: 04:06,0.048,
    Until: 04:11,1.000,
    Until: 05:39,0.000,
    Until: 05:41,1.000,
    Until: 06:26,0.048,
    Until: 06:31,1.000,
    Until: 12:14,0.000,
    Until: 12:16,1.000,
    Until: 13:01,0.048,
    Until: 13:06,1.000,
    Until: 13:34,0.000,
    Until: 13:36,1.000,
    Until: 14:21,0.048,
    Until: 14:26,1.000,
    Until: 24:00,0.000,
    Through: 11/21,
    For: AllDays,
    Until: 24:00,0.000,
    Through: 11/22,
    For: AllDays,
    Until: 24:00,0.000,
    Through: 11/23,
    For: AllDays,
    Until: 01:03,0.000,
    Until: 01:05,1.000,
    Until: 01:50,0.048,
    Until: 01:55,1.000,
    Until: 03:03,0.000,
    Until: 03:05,1.000,
    Until: 03:50,0.048,
    Until: 03:55,1.000,
    Until: 07:24,0.000,
    Until: 07:26,1.000,
    Until: 08:11,0.048,
    Until: 08:16,1.000,
    Until: 11:30,0.000,
    Until: 11:32,1.000,
    Until: 12:17,0.048,
    Until: 12:22,1.000,
    Until: 12:32,0.000,
    Until: 12:34,1.000,
    Until: 13:19,0.048,
    Until: 13:24,1.000,
    Until: 24:00,0.000,
    Through: 11/24,
    For: AllDays,
    Until: 02:15,0.000,
    Until: 02:17,1.000,
    Until: 03:02,0.048,
    Until: 03:07,1.000,
    Until: 03:46,0.000,
    Until: 03:48,1.000,
    Until: 04:33,0.048,
    Until: 04:38,1.000,
    Until: 07:27,0.000,
    Until: 07:29,1.000,
    Until: 08:14,0.048,
    Until: 08:19,1.000,
    Until: 13:39,0.000,
    Until: 13:41,1.000,
    Until: 14:26,0.048,
    Until: 14:31,1.000,
    Until: 18:00,0.000,
    Until: 18:02,1.000,
    Until: 18:47,0.048,
    Until: 18:52,1.000,
    Until: 24:00,0.000,
    Through: 11/25,
    For: AllDays,
    Until: 00:54,0.000,
    Until: 00:56,1.000,
    Until: 01:41,0.048,
    Until: 01:46,1.000,
    Until: 02:45,0.000,
    Until: 02:47,1.000,
    Until: 03:32,0.048,
    Until: 03:37,1.000,
    Until: 04:27,0.000,
    Until: 04:29,1.000,
    Until: 05:14,0.048,
    Until: 05:19,1.000,
    Until: 06:48,0.000,
    Until: 06:50,1.000,
    Until: 07:35,0.048,
    Until: 07:40,1.000,
    Until: 11:04,0.000,
    Until: 11:06,1.000,
    Until: 11:51,0.048,
    Until: 11:56,1.000,
    Until: 24:00,0.000,
    Through: 11/26,
    For: AllDays,
    Until: 02:00,0.000,
    Until: 02:02,1.000,
    Until: 02:47,0.048,
    Until: 02:52,1.000,
    Until: 03:23,0.000,
    Until: 03:25,1.000,
    Until: 04:10,0.048,
    Until: 04:15,1.000,
    Until: 08:24,0.000,
    Until: 08:26,1.000,
    Until: 09:11,0.048,
    Until: 09:16,1.000,
    Until: 09:40,0.000,
    Until: 09:42,1.000,
    Until: 10:27,0.048,
    Until: 10:32,1.000,
    Until: 24:00,0.000,
    Through: 11/27,
    For: AllDays,
    Until: 04:07,0.000,
    Until: 04:09,1.000,
    Until: 04:54,0.048,
    Until: 04:59,1.000,
    Until: 12:57,0.000,
    Until: 12:59,1.000,
    Until: 13:44,0.048,
    Until: 13:49,1.000,
    Until: 24:00,0.000,
    Through: 11/28,
    For: AllDays,
    Until: 24:00,0.000,
    Through: 11/29,
    For: AllDays,
    Until: 24:00,0.000,
    Through: 11/30,
    For: AllDays,
    Until: 02:23,0.000,
    Until: 02:25,1.000,
    Until: 03:10,0.048,
    Until: 03:15,1.000,
    Until: 04:18,0.000,
    Until: 04:20,1.000,
    Until: 05:05,0.048,
    Until: 05:10,1.000,
    Until: 07:04,0.000,
    Until: 07:06,1.000,
    Until: 07:51,0.048,
    Until: 07:56,1.000,
    Until: 11:57,0.000,
    Until: 11:59,1.000,
    Until: 12:44,0.048,
    Until: 12:49,1.000,
    Until: 13:34,0.000,
    Until: 13:36,1.000,
    Until: 14:21,0.048,
    Until: 14:26,1.000,
    Until: 17:09,0.000,
    Until: 17:11,1.000,
    Until: 17:56,0.048,
    Until: 18:01,1.000,
    Until: 24:00,0.000,
    Through: 12/1,
    For: AllDays,
    Until: 02:22,0.000,
    Until: 02:24,1.000,
    Until: 03:09,0.048,
    Until: 03:14,1.000,
    Until: 03:15,0.000,
    Until: 03:17,1.000,
    Until: 04:02,0.048,
    Until: 04:07,1.000,
    Until: 08:08,0.000,
    Until: 08:10,1.000,
    Until: 08:55,0.048,
    Until: 09:00,1.000,
    Until: 12:09,0.000,
    Until: 12:11,1.000,
    Until: 12:56,0.048,
    Until: 13:01,1.000,
    Until: 24:00,0.000,
    Through: 12/2,
    For: AllDays,
    Until: 01:12,0.000,
    Until: 01:14,1.000,
    Until: 01:59,0.048,
    Until: 02:04,1.000,
    Until: 03:23,0.000,
    Until: 03:25,1.000,
    Until: 04:10,0.048,
    Until: 04:15,1.000,
    Until: 07:01,0.000,
    Until: 07:03,1.000,
    Until: 07:48,0.048,
    Until: 07:53,1.000,
    Until: 08:32,0.000,
    Until: 08:34,1.000,
    Until: 09:19,0.048,
    Until: 09:24,1.000,
    Until: 09:39,0.000,
    Until: 09:41,1.000,
    Until: 10:26,0.048,
    Until: 10:31,1.000,
    Until: 24:00,0.000,
    Through: 12/3,
    For: AllDays,
    Until: 01:49,0.000,
    Until: 01:51,1.000,
    Until: 02:36,0.048,
    Until: 02:41,1.000,
    Until: 03:08,0.000,
    Until: 03:10,1.000,
    Until: 03:55,0.048,
    Until: 04:00,1.000,
    Until: 12:58,0.000,
    Until: 13:00,1.000,
    Until: 13:45,0.048,
    Until: 13:50,1.000,
    Until: 13:56,0.000,
    Until: 13:58,1.000,
    Until: 14:43,0.048,
    Until: 14:48,1.000,
    Until: 24:00,0.000,
    Through: 12/4,
    For: AllDays,
    Until: 01:06,0.000,
    Until: 01:08,1.000,
    Until: 01:53,0.048,
    Until: 01:58,1.000,
    Until: 02:42,0.000,
    Until: 02:44,1.000,
    Until: 03:29,0.048,
    Until: 03:34,1.000,
    Until: 03:47,0.000,
    Until: 03:49,1.000,
    Until: 04:34,0.048,
    Until: 04:39,1.000,
    Until: 06:59,0.000,
    Until: 07:01,1.000,
    Until: 07:46,0.048,
    Until: 07:51,1.000,
    Until: 10:55,0.000,
    Until: 10:57,1.000,
    Until: 11:42,0.048,
    Until: 11:47,1.000,
    Until: 16:54,0.000,
    Until: 16:56,1.000,
    Until: 17:41,0.048,
    Until: 17:46,1.000,
    Until: 24:00,0.000,
    Through: 12/5,
    For: AllDays,
    Until: 24:00,0.000,
    Through: 12/6,
    For: AllDays,
    Until: 24:00,0.000,
    Through: 12/7,
    For: AllDays,
    Until: 00:43,0.000,
    Until: 00:45,1.000,
    Until: 01:30,0.048,
    Until: 01:35,1.000,
    Until: 01:38,0.000,
    Until: 01:40,1.000,
    Until: 02:25,0.048,
    Until: 02:30,1.000,
    Until: 03:12,0.000,
    Until: 03:14,1.000,
    Until: 03:59,0.048,
    Until: 04:04,1.000,
    Until: 06:07,0.000,
    Until: 06:09,1.000,
    Until: 06:54,0.048,
    Until: 06:59,1.000,
    Until: 11:36,0.000,
    Until: 11:38,1.000,
    Until: 12:23,0.048,
    Until: 12:28,1.000,
    Until: 13:29,0.000,
    Until: 13:31,1.000,
    Until: 14:16,0.048,
    Until: 14:21,1.000,
    Until: 16:52,0.000,
    Until: 16:54,1.000,
    Until: 17:39,0.048,
    Until: 17:44,1.000,
    Until: 24:00,0.000,
    Through: 12/8,
    For: AllDays,
    Until: 02:43,0.000,
    Until: 02:45,1.000,
    Until: 03:30,0.048,
    Until: 03:35,1.000,
    Until: 03:43,0.000,
    Until: 03:45,1.000,
    Until: 04:30,0.048,
    Until: 04:35,1.000,
    Until: 08:19,0.000,
    Until: 08:21,1.000,
    Until: 09:06,0.048,
    Until: 09:11,1.000,
    Until: 12:10,0.000,
    Until: 12:12,1.000,
    Until: 12:57,0.048,
    Until: 13:02,1.000,
    Until: 13:03,0.000,
    Until: 13:05,1.000,
    Until: 13:50,0.048,
    Until: 13:55,1.000,
    Until: 24:00,0.000,
    Through: 12/9,
    For: AllDays,
    Until: 01:55,0.000,
    Until: 01:57,1.000,
    Until: 02:42,0.048,
    Until: 02:47,1.000,
    Until: 03:24,0.000,
    Until: 03:26,1.000,
    Until: 04:11,0.048,
    Until: 04:16,1.000,
    Until: 04:17,0.000,
    Until: 04:19,1.000,
    Until: 05:04,0.048,
    Until: 05:09,1.000,
    Until: 06:47,0.000,
    Until: 06:49,1.000,
    Until: 07:34,0.048,
    Until: 07:39,1.000,
    Until: 11:20,0.000,
    Until: 11:22,1.000,
    Until: 12:07,0.048,
    Until: 12:12,1.000,
    Until: 24:00,0.000,
    Through: 12/10,
    For: AllDays,
    Until: 02:30,0.000,
    Until: 02:32,1.000,
    Until: 03:17,0.048,
    Until: 03:22,1.000,
    Until: 03:27,0.000,
    Until: 03:29,1.000,
    Until: 04:14,0.048,
    Until: 04:19,1.000,
    Until: 04:20,0.000,
    Until: 04:22,1.000,
    Until: 05:07,0.048,
    Until: 05:12,1.000,
    Until: 14:15,0.000,
    Until: 14:17,1.000,
    Until: 15:02,0.048,
    Until: 15:07,1.000,
    Until: 24:00,0.000,
    Through: 12/11,
    For: AllDays,
    Until: 01:12,0.000,
    Until: 01:14,1.000,
    Until: 01:59,0.048,
    Until: 02:04,1.000,
    Until: 02:22,0.000,
    Until: 02:24,1.000,
    Until: 03:09,0.048,
    Until: 03:14,1.000,
    Until: 06:19,0.000,
    Until: 06:21,1.000,
    Until: 07:06,0.048,
    Until: 07:11,1.000,
    Until: 13:29,0.000,
    Until: 13:31,1.000,
    Until: 14:16,0.048,
    Until: 14:21,1.000,
    Until: 17:17,0.000,
    Until: 17:19,1.000,
    Until: 18:04,0.048,
    Until: 18:09,1.000,
    Until: 24:00,0.000,
    Through: 12/12,
    For: AllDays,
    Until: 24:00,0.000,
    Through: 12/13,
    For: AllDays,
    Until: 24:00,0.000,
    Through: 12/14,
    For: AllDays,
    Until: 01:58,0.000,
    Until: 02:00,1.000,
    Until: 02:45,0.048,
    Until: 02:50,1.000,
    Until: 02:56,0.000,
    Until: 02:58,1.000,
    Until: 03:43,0.048,
    Until: 03:48,1.000,
    Until: 07:12,0.000,
    Until: 07:14,1.000,
    Until: 07:59,0.048,
    Until: 08:04,1.000,
    Until: 08:28,0.000,
    Until: 08:30,1.000,
    Until: 09:15,0.048,
    Until: 09:20,1.000,
    Until: 11:05,0.000,
    Until: 11:07,1.000,
    Until: 11:52,0.048,
    Until: 11:57,1.000,
    Until: 12:36,0.000,
    Until: 12:38,1.000,
    Until: 13:23,0.048,
    Until: 13:28,1.000,
    Until: 24:00,0.000,
    Through: 12/15,
    For: AllDays,
    Until: 00:49,0.000,
    Until: 00:51,1.000,
    Until: 01:36,0.048,
    Until: 01:41,1.000,
    Until: 02:52,0.000,
    Until: 02:54,1.000,
    Until: 03:39,0.048,
    Until: 03:44,1.000,
    Until: 05:21,0.000,
    Until: 05:23,1.000,
    Until: 06:08,0.048,
    Until: 06:13,1.000,
    Until: 07:28,0.000,
    Until: 07:30,1.000,
    Until: 08:15,0.048,
    Until: 08:20,1.000,
    Until: 11:01,0.000,
    Until: 11:03,1.000,
    Until: 11:48,0.048,
    Until: 11:53,1.000,
    Until: 12:58,0.000,
    Until: 13:00,1.000,
    Until: 13:45,0.048,
    Until: 13:50,1.000,
    Until: 16:06,0.000,
    Until: 16:08,1.000,
    Until: 16:53,0.048,
    Until: 16:58,1.000,
    Until: 24:00,0.000,
    Through: 12/16,
    For: AllDays,
    Until: 01:32,0.000,
    Until: 01:34,1.000,
    Until: 02:19,0.048,
    Until: 02:24,1.000,
    Until: 02:25,0.000,
    Until: 02:27,1.000,
    Until: 03:12,0.048,
    Until: 03:17,1.000,
    Until: 05:35,0.000,
    Until: 05:37,1.000,
    Until: 06:22,0.048,
    Until: 06:27,1.000,
    Until: 13:29,0.000,
    Until: 13:31,1.000,
    Until: 14:16,0.048,
    Until: 14:21,1.000,
    Until: 16:42,0.000,
    Until: 16:44,1.000,
    Until: 17:29,0.048,
    Until: 17:34,1.000,
    Until: 24:00,0.000,
    Through: 12/17,
    For: AllDays,
    Until: 01:34,0.000,
    Until: 01:36,1.000,
    Until: 02:21,0.048,
    Until: 02:26,1.000,
    Until: 02:27,0.000,
    Until: 02:29,1.000,
    Until: 03:14,0.048,
    Until: 03:19,1.000,
    Until: 03:20,0.000,
    Until: 03:22,1.000,
    Until: 04:07,0.048,
    Until: 04:12,1.000,
    Until: 10:21,0.000,
    Until: 10:23,1.000,
    Until: 11:08,0.048,
    Until: 11:13,1.000,
    Until: 11:25,0.000,
    Until: 11:27,1.000,
    Until: 12:12,0.048,
    Until: 12:17,1.000,
    Until: 16:43,0.000,
    Until: 16:45,1.000,
    Until: 17:30,0.048,
    Until: 17:35,1.000,
    Until: 24:00,0.000,
    Through: 12/18,
    For: AllDays,
    Until: 00:38,0.000,
    Until: 00:40,1.000,
    Until: 01:25,0.048,
    Until: 01:30,1.000,
    Until: 02:11,0.000,
    Until: 02:13,1.000,
    Until: 02:58,0.048,
    Until: 03:03,1.000,
    Until: 05:48,0.000,
    Until: 05:50,1.000,
    Until: 06:35,0.048,
    Until: 06:40,1.000,
    Until: 11:55,0.000,
    Until: 11:57,1.000,
    Until: 12:42,0.048,
    Until: 12:47,1.000,
    Until: 16:44,0.000,
    Until: 16:46,1.000,
    Until: 17:31,0.048,
    Until: 17:36,1.000,
    Until: 24:00,0.000,
    Through: 12/19,
    For: AllDays,
    Until: 24:00,0.000,
    Through: 12/20,
    For: AllDays,
    Until: 24:00,0.000,
    Through: 12/21,
    For: AllDays,
    Until: 02:00,0.000,
    Until: 02:02,1.000,
    Until: 02:47,0.048,
    Until: 02:52,1.000,
    Until: 03:08,0.000,
    Until: 03:10,1.000,
    Until: 03:55,0.048,
    Until: 04:00,1.000,
    Until: 12:59,0.000,
    Until: 13:01,1.000,
    Until: 13:46,0.048,
    Until: 13:51,1.000,
    Until: 14:09,0.000,
    Until: 14:11,1.000,
    Until: 14:56,0.048,
    Until: 15:01,1.000,
    Until: 18:03,0.000,
    Until: 18:05,1.000,
    Until: 18:50,0.048,
    Until: 18:55,1.000,
    Until: 24:00,0.000,
    Through: 12/22,
    For: AllDays,
    Until: 02:29,0.000,
    Until: 02:31,1.000,
    Until: 03:16,0.048,
    Until: 03:21,1.000,
    Until: 03:32,0.000,
    Until: 03:34,1.000,
    Until: 04:19,0.048,
    Until: 04:24,1.000,
    Until: 08:24,0.000,
    Until: 08:26,1.000,
    Until: 09:11,0.048,
    Until: 09:16,1.000,
    Until: 12:59,0.000,
    Until: 13:01,1.000,
    Until: 13:46,0.048,
    Until: 13:51,1.000,
    Until: 17:11,0.000,
    Until: 17:13,1.000,
    Until: 17:58,0.048,
    Until: 18:03,1.000,
    Until: 24:00,0.000,
    Through: 12/23,
    For: AllDays,
    Until: 01:34,0.000,
    Until: 01:36,1.000,
    Until: 02:21,0.048,
    Until: 02:26,1.000,
    Until: 03:16,0.000,
    Until: 03:18,1.000,
    Until: 04:03,0.048,
    Until: 04:08,1.000,
    Until: 04:22,0.000,
    Until: 04:24,1.000,
    Until: 05:09,0.048,
    Until: 05:14,1.000,
    Until: 07:23,0.000,
    Until: 07:25,1.000,
    Until: 08:10,0.048,
    Until: 08:15,1.000,
    Until: 15:55,0.000,
    Until: 15:57,1.000,
    Until: 16:42,0.048,
    Until: 16:47,1.000,
    Until: 24:00,0.000,
    Through: 12/24,
    For: AllDays,
    Until: 01:46,0.000,
    Until: 01:48,1.000,
    Until: 02:33,0.048,
    Until: 02:38,1.000,
    Until: 02:39,0.000,
    Until: 02:41,1.000,
    Until: 03:26,0.048,
    Until: 03:31,1.000,
    Until: 03:32,0.000,
    Until: 03:34,1.000,
    Until: 04:19,0.048,
    Until: 04:24,1.000,
    Until: 10:35,0.000,
    Until: 10:37,1.000,
    Until: 11:22,0.048,
    Until: 11:27,1.000,
    Until: 13:06,0.000,
    Until: 13:08,1.000,
    Until: 13:53,0.048,
    Until: 13:58,1.000,
    Until: 16:26,0.000,
    Until: 16:28,1.000,
    Until: 17:13,0.048,
    Until: 17:18,1.000,
    Until: 24:00,0.000,
    Through: 12/25,
    For: AllDays,
    Until: 02:32,0.000,
    Until: 02:34,1.000,
    Until: 03:19,0.048,
    Until: 03:24,1.000,
    Until: 03:25,0.000,
    Until: 03:27,1.000,
    Until: 04:12,0.048,
    Until: 04:17,1.000,
    Until: 04:18,0.000,
    Until: 04:20,1.000,
    Until: 05:05,0.048,
    Until: 05:10,1.000,
    Until: 13:41,0.000,
    Until: 13:43,1.000,
    Until: 14:28,0.048,
    Until: 14:33,1.000,
    Until: 17:02,0.000,
    Until: 17:04,1.000,
    Until: 17:49,0.048,
    Until: 17:54,1.000,
    Until: 24:00,0.000,
    Through: 12/26,
    For: AllDays,
    Until: 24:00,0.000,
    Through: 12/27,
    For: AllDays,
    Until: 24:00,0.000,
    Through: 12/28,
    For: AllDays,
    Until: 01:36,0.000,
    Until: 01:38,1.000,
    Until: 02:23,0.048,
    Until: 02:28,1.000,
    Until: 04:15,0.000,
    Until: 04:17,1.000,
    Until: 05:02,0.048,
    Until: 05:07,1.000,
    Until: 06:07,0.000,
    Until: 06:09,1.000,
    Until: 06:54,0.048,
    Until: 06:59,1.000,
    Until: 07:33,0.000,
    Until: 07:35,1.000,
    Until: 08:20,0.048,
    Until: 08:25,1.000,
    Until: 11:24,0.000,
    Until: 11:26,1.000,
    Until: 12:11,0.048,
    Until: 12:16,1.000,
    Until: 12:37,0.000,
    Until: 12:39,1.000,
    Until: 13:24,0.048,
    Until: 13:29,1.000,
    Until: 24:00,0.000,
    Through: 12/29,
    For: AllDays,
    Until: 01:26,0.000,
    Until: 01:28,1.000,
    Until: 02:13,0.048,
    Until: 02:18,1.000,
    Until: 02:58,0.000,
    Until: 03:00,1.000,
    Until: 03:45,0.048,
    Until: 03:50,1.000,
    Until: 07:33,0.000,
    Until: 07:35,1.000,
    Until: 08:20,0.048,
    Until: 08:25,1.000,
    Until: 11:48,0.000,
    Until: 11:50,1.000,
    Until: 12:35,0.048,
    Until: 12:40,1.000,
    Until: 24:00,0.000,
    Through: 12/30,
    For: AllDays,
    Until: 02:41,0.000,
    Until: 02:43,1.000,
    Until: 03:28,0.048,
    Until: 03:33,1.000,
    Until: 03:34,0.000,
    Until: 03:36,1.000,
    Until: 04:21,0.048,
    Until: 04:26,1.000,
    Until: 08:54,0.000,
    Until: 08:56,1.000,
    Until: 09:41,0.048,
    Until: 09:46,1.000,
    Until: 11:53,0.000,
    Until: 11:55,1.000,
    Until: 12:40,0.048,
    Until: 12:45,1.000,
    Until: 12:46,0.000,
    Until: 12:48,1.000,
    Until: 13:33,0.048,
    Until: 13:38,1.000,
    Until: 16:46,0.000,
    Until: 16:48,1.000,
    Until: 17:33,0.048,
    Until: 17:38,1.000,
    Until: 24:00,0.000,
    Through: 12/31,
    For: AllDays,
    Until: 03:02,0.000,
    Until: 03:04,1.000,
    Until: 03:49,0.048,
    Until: 03:54,1.000,
    Until: 03:55,0.000,
    Until: 03:57,1.000,
    Until: 04:42,0.048,
    Until: 04:47,1.000,
    Until: 08:06,0.000,
    Until: 08:08,1.000,
    Until: 08:53,0.048,
    Until: 08:58,1.000,
    Until: 11:26,0.000,
    Until: 11:28,1.000,
    Until: 12:13,0.048,
    Until: 12:18,1.000,
    Until: 16:32,0.000,
    Until: 16:34,1.000,
    Until: 17:19,0.048,
    Until: 17:24,1.000,
    Until: 24:00,0.000,
    Through: 1/2,
    For: AllDays,
    Until: 24:00,0.000;

Schedule:Compact,
    AN_3_Tor_Schedule,       !- Name
    Fraction,                !- Schedule Type Limits Name
    Through: 1/1,
    For: AllDays,
    Until: 24:00,0.000,
    Through: 1/2,
    For: AllDays,
    Until: 24:00,0.000,
    Through: 1/3,
    For: AllDays,
    Until: 24:00,0.000,
    Through: 1/4,
    For: AllDays,
    Until: 24:00,0.000,
    Through: 1/5,
    For: AllDays,
    Until: 01:01,0.000,
    Until: 01:03,1.000,
    Until: 01:48,0.048,
    Until: 01:53,1.000,
    Until: 03:11,0.000,
    Until: 03:13,1.000,
    Until: 03:58,0.048,
    Until: 04:03,1.000,
    Until: 04:04,0.000,
    Until: 04:06,1.000,
    Until: 04:51,0.048,
    Until: 04:56,1.000,
    Until: 06:00,0.000,
    Until: 06:02,1.000,
    Until: 06:47,0.048,
    Until: 06:52,1.000,
    Until: 12:36,0.000,
    Until: 12:38,1.000,
    Until: 13:23,0.048,
    Until: 13:28,1.000,
    Until: 13:40,0.000,
    Until: 13:42,1.000,
    Until: 14:27,0.048,
    Until: 14:32,1.000,
    Until: 24:00,0.000,
    Through: 1/6,
    For: AllDays,
    Until: 02:44,0.000,
    Until: 02:46,1.000,
    Until: 03:31,0.048,
    Until: 03:36,1.000,
    Until: 03:38,0.000,
    Until: 03:40,1.000,
    Until: 04:25,0.048,
    Until: 04:30,1.000,
    Until: 06:18,0.000,
    Until: 06:20,1.000,
    Until: 07:05,0.048,
    Until: 07:10,1.000,
    Until: 08:15,0.000,
    Until: 08:17,1.000,
    Until: 09:02,0.048,
    Until: 09:07,1.000,
    Until: 12:44,0.000,
    Until: 12:46,1.000,
    Until: 13:31,0.048,
    Until: 13:36,1.000,
    Until: 18:42,0.000,
    Until: 18:44,1.000,
    Until: 19:29,0.048,
    Until: 19:34,1.000,
    Until: 24:00,0.000,
    Through: 1/7,
    For: AllDays,
    Until: 01:38,0.000,
    Until: 01:40,1.000,
    Until: 02:25,0.048,
    Until: 02:30,1.000,
    Until: 02:31,0.000,
    Until: 02:33,1.000,
    Until: 03:18,0.048,
    Until: 03:23,1.000,
    Until: 07:59,0.000,
    Until: 08:01,1.000,
    Until: 08:46,0.048,
    Until: 08:51,1.000,
    Until: 11:48,0.000,
    Until: 11:50,1.000,
    Until: 12:35,0.048,
    Until: 12:40,1.000,
    Until: 13:09,0.000,
    Until: 13:11,1.000,
    Until: 13:56,0.048,
    Until: 14:01,1.000,
    Until: 17:32,0.000,
    Until: 17:34,1.000,
    Until: 18:19,0.048,
    Until: 18:24,1.000,
    Until: 24:00,0.000,
    Through: 1/8,
    For: AllDays,
    Until: 03:04,0.000,
    Until: 03:06,1.000,
    Until: 03:51,0.048,
    Until: 03:56,1.000,
    Until: 03:57,0.000,
    Until: 03:59,1.000,
    Until: 04:44,0.048,
    Until: 04:49,1.000,
    Until: 12:04,0.000,
    Until: 12:06,1.000,
    Until: 12:51,0.048,
    Until: 12:56,1.000,
    Until: 13:00,0.000,
    Until: 13:02,1.000,
    Until: 13:47,0.048,
    Until: 13:52,1.000,
    Until: 24:00,0.000,
    Through: 1/9,
    For: AllDays,
    Until: 02:16,0.000,
    Until: 02:18,1.000,
    Until: 03:03,0.048,
    Until: 03:08,1.000,
    Until: 03:09,0.000,
    Until: 03:11,1.000,
    Until: 03:56,0.048,
    Until: 04:01,1.000,
    Until: 12:20,0.000,
    Until: 12:22,1.000,
    Until: 13:07,0.048,
    Until: 13:12,1.000,
    Until: 24:00,0.000,
    Through: 1/10,
    For: AllDays,
    Until: 24:00,0.000,
    Through: 1/11,
    For: AllDays,
    Until: 24:00,0.000,
    Through: 1/12,
    For: AllDays,
    Until: 00:28,0.000,
    Until: 00:30,1.000,
    Until: 01:15,0.048,
    Until: 01:20,1.000,
    Until: 01:23,0.000,
    Until: 01:25,1.000,
    Until: 02:10,0.048,
    Until: 02:15,1.000,
    Until: 02:26,0.000,
    Until: 02:28,1.000,
    Until: 03:13,0.048,
    Until: 03:18,1.000,
    Until: 07:59,0.000,
    Until: 08:01,1.000,
    Until: 08:46,0.048,
    Until: 08:51,1.000,
    Until: 11:59,0.000,
    Until: 12:01,1.000,
    Until: 12:46,0.048,
    Until: 12:51,1.000,
    Until: 24:00,0.000,
    Through: 1/13,
    For: AllDays,
    Until: 01:47,0.000,
    Until: 01:49,1.000,
    Until: 02:34,0.048,
    Until: 02:39,1.000,
    Until: 03:11,0.000,
    Until: 03:13,1.000,
    Until: 03:58,0.048,
    Until: 04:03,1.000,
    Until: 04:16,0.000,
    Until: 04:18,1.000,
    Until: 05:03,0.048,
    Until: 05:08,1.000,
    Until: 06:36,0.000,
    Until: 06:38,1.000,
    Until: 07:23,0.048,
    Until: 07:28,1.000,
    Until: 11:08,0.000,
    Until: 11:10,1.000,
    Until: 11:55,0.048,
    Until: 12:00,1.000,
    Until: 24:00,0.000,
    Through: 1/14,
    For: AllDays,
    Until: 02:21,0.000,
    Until: 02:23,1.000,
    Until: 03:08,0.048,
    Until: 03:13,1.000,
    Until: 03:14,0.000,
    Until: 03:16,1.000,
    Until: 04:01,0.048,
    Until: 04:06,1.000,
    Until: 04:07,0.000,
    Until: 04:09,1.000,
    Until: 04:54,0.048,
    Until: 04:59,1.000,
    Until: 24:00,0.000,
    Through: 1/15,
    For: AllDays,
    Until: 00:28,0.000,
    Until: 00:30,1.000,
    Until: 01:15,0.048,
    Until: 01:20,1.000,
    Until: 02:49,0.000,
    Until: 02:51,1.000,
    Until: 03:36,0.048,
    Until: 03:41,1.000,
    Until: 04:03,0.000,
    Until: 04:05,1.000,
    Until: 04:50,0.048,
    Until: 04:55,1.000,
    Until: 05:45,0.000,
    Until: 05:47,1.000,
    Until: 06:32,0.048,
    Until: 06:37,1.000,
    Until: 12:04,0.000,
    Until: 12:06,1.000,
    Until: 12:51,0.048,
    Until: 12:56,1.000,
    Until: 24:00,0.000,
    Through: 1/16,
    For: AllDays,
    Until: 01:15,0.000,
    Until: 01:17,1.000,
    Until: 02:02,0.048,
    Until: 02:07,1.000,
    Until: 02:22,0.000,
    Until: 02:24,1.000,
    Until: 03:09,0.048,
    Until: 03:14,1.000,
    Until: 06:38,0.000,
    Until: 06:40,1.000,
    Until: 07:25,0.048,
    Until: 07:30,1.000,
    Until: 07:54,0.000,
    Until: 07:56,1.000,
    Until: 08:41,0.048,
    Until: 08:46,1.000,
    Until: 10:41,0.000,
    Until: 10:43,1.000,
    Until: 11:28,0.048,
    Until: 11:33,1.000,
    Until: 12:53,0.000,
    Until: 12:55,1.000,
    Until: 13:40,0.048,
    Until: 13:45,1.000,
    Until: 24:00,0.000,
    Through: 1/17,
    For: AllDays,
    Until: 24:00,0.000,
    Through: 1/18,
    For: AllDays,
    Until: 24:00,0.000,
    Through: 1/19,
    For: AllDays,
    Until: 02:09,0.000,
    Until: 02:11,1.000,
    Until: 02:56,0.048,
    Until: 03:01,1.000,
    Until: 03:38,0.000,
    Until: 03:40,1.000,
    Until: 04:25,0.048,
    Until: 04:30,1.000,
    Until: 08:54,0.000,
    Until: 08:56,1.000,
    Until: 09:41,0.048,
    Until: 09:46,1.000,
    Until: 14:09,0.000,
    Until: 14:11,1.000,
    Until: 14:56,0.048,
    Until: 15:01,1.000,
    Until: 17:45,0.000,
    Until: 17:47,1.000,
    Until: 18:32,0.048,
    Until: 18:37,1.000,
    Until: 24:00,0.000,
    Through: 1/20,
    For: AllDays,
    Until: 01:57,0.000,
    Until: 01:59,1.000,
    Until: 02:44,0.048,
    Until: 02:49,1.000,
    Until: 03:26,0.000,
    Until: 03:28,1.000,
    Until: 04:13,0.048,
    Until: 04:18,1.000,
    Until: 06:34,0.000,
    Until: 06:36,1.000,
    Until: 07:21,0.048,
    Until: 07:26,1.000,
    Until: 10:46,0.000,
    Until: 10:48,1.000,
    Until: 11:33,0.048,
    Until: 11:38,1.000,
    Until: 13:15,0.000,
    Until: 13:17,1.000,
    Until: 14:02,0.048,
    Until: 14:07,1.000,
    Until: 24:00,0.000,
    Through: 1/21,
    For: AllDays,
    Until: 01:30,0.000,
    Until: 01:32,1.000,
    Until: 02:17,0.048,
    Until: 02:22,1.000,
    Until: 02:52,0.000,
    Until: 02:54,1.000,
    Until: 03:39,0.048,
    Until: 03:44,1.000,
    Until: 03:49,0.000,
    Until: 03:51,1.000,
    Until: 04:36,0.048,
    Until: 04:41,1.000,
    Until: 10:46,0.000,
    Until: 10:48,1.000,
    Until: 11:33,0.048,
    Until: 11:38,1.000,
    Until: 12:43,0.000,
    Until: 12:45,1.000,
    Until: 13:30,0.048,
    Until: 13:35,1.000,
    Until: 24:00,0.000,
    Through: 1/22,
    For: AllDays,
    Until: 01:10,0.000,
    Until: 01:12,1.000,
    Until: 01:57,0.048,
    Until: 02:02,1.000,
    Until: 02:14,0.000,
    Until: 02:16,1.000,
    Until: 03:01,0.048,
    Until: 03:06,1.000,
    Until: 03:33,0.000,
    Until: 03:35,1.000,
    Until: 04:20,0.048,
    Until: 04:25,1.000,
    Until: 07:52,0.000,
    Until: 07:54,1.000,
    Until: 08:39,0.048,
    Until: 08:44,1.000,
    Until: 10:06,0.000,
    Until: 10:08,1.000,
    Until: 10:53,0.048,
    Until: 10:58,1.000,
    Until: 12:20,0.000,
    Until: 12:22,1.000,
    Until: 13:07,0.048,
    Until: 13:12,1.000,
    Until: 13:49,0.000,
    Until: 13:51,1.000,
    Until: 14:36,0.048,
    Until: 14:41,1.000,
    Until: 24:00,0.000,
    Through: 1/23,
    For: AllDays,
    Until: 02:27,0.000,
    Until: 02:29,1.000,
    Until: 03:14,0.048,
    Until: 03:19,1.000,
    Until: 03:33,0.000,
    Until: 03:35,1.000,
    Until: 04:20,0.048,
    Until: 04:25,1.000,
    Until: 05:13,0.000,
    Until: 05:15,1.000,
    Until: 06:00,0.048,
    Until: 06:05,1.000,
    Until: 11:15,0.000,
    Until: 11:17,1.000,
    Until: 12:02,0.048,
    Until: 12:07,1.000,
    Until: 12:15,0.000,
    Until: 12:17,1.000,
    Until: 13:02,0.048,
    Until: 13:07,1.000,
    Until: 13:14,0.000,
    Until: 13:16,1.000,
    Until: 14:01,0.048,
    Until: 14:06,1.000,
    Until: 18:11,0.000,
    Until: 18:13,1.000,
    Until: 18:58,0.048,
    Until: 19:03,1.000,
    Until: 24:00,0.000,
    Through: 1/24,
    For: AllDays,
    Until: 24:00,0.000,
    Through: 1/25,
    For: AllDays,
    Until: 24:00,0.000,
    Through: 1/26,
    For: AllDays,
    Until: 02:19,0.000,
    Until: 02:21,1.000,
    Until: 03:06,0.048,
    Until: 03:11,1.000,
    Until: 03:12,0.000,
    Until: 03:14,1.000,
    Until: 03:59,0.048,
    Until: 04:04,1.000,
    Until: 08:08,0.000,
    Until: 08:10,1.000,
    Until: 08:55,0.048,
    Until: 09:00,1.000,
    Until: 10:27,0.000,
    Until: 10:29,1.000,
    Until: 11:14,0.048,
    Until: 11:19,1.000,
    Until: 13:11,0.000,
    Until: 13:13,1.000,
    Until: 13:58,0.048,
    Until: 14:03,1.000,
    Until: 18:01,0.000,
    Until: 18:03,1.000,
    Until: 18:48,0.048,
    Until: 18:53,1.000,
    Until: 24:00,0.000,
    Through: 1/27,
    For: AllDays,
    Until: 01:19,0.000,
    Until: 01:21,1.000,
    Until: 02:06,0.048,
    Until: 02:11,1.000,
    Until: 02:12,0.000,
    Until: 02:14,1.000,
    Until: 02:59,0.048,
    Until: 03:04,1.000,
    Until: 11:49,0.000,
    Until: 11:51,1.000,
    Until: 12:36,0.048,
    Until: 12:41,1.000,
    Until: 24:00,0.000,
    Through: 1/28,
    For: AllDays,
    Until: 00:40,0.000,
    Until: 00:42,1.000,
    Until: 01:27,0.048,
    Until: 01:32,1.000,
    Until: 01:43,0.000,
    Until: 01:45,1.000,
    Until: 02:30,0.048,
    Until: 02:35,1.000,
    Until: 07:26,0.000,
    Until: 07:28,1.000,
    Until: 08:13,0.048,
    Until: 08:18,1.000,
    Until: 10:39,0.000,
    Until: 10:41,1.000,
    Until: 11:26,0.048,
    Until: 11:31,1.000,
    Until: 13:39,0.000,
    Until: 13:41,1.000,
    Until: 14:26,0.048,
    Until: 14:31,1.000,
    Until: 18:05,0.000,
    Until: 18:07,1.000,
    Until: 18:52,0.048,
    Until: 18:57,1.000,
    Until: 24:00,0.000,
    Through: 1/29,
    For: AllDays,
    Until: 01:14,0.000,
    Until: 01:16,1.000,
    Until: 02:01,0.048,
    Until: 02:06,1.000,
    Until: 03:00,0.000,
    Until: 03:02,1.000,
    Until: 03:47,0.048,
    Until: 03:52,1.000,
    Until: 03:53,0.000,
    Until: 03:55,1.000,
    Until: 04:40,0.048,
    Until: 04:45,1.000,
    Until: 07:28,0.000,
    Until: 07:30,1.000,
    Until: 08:15,0.048,
    Until: 08:20,1.000,
    Until: 08:33,0.000,
    Until: 08:35,1.000,
    Until: 09:20,0.048,
    Until: 09:25,1.000,
    Until: 11:47,0.000,
    Until: 11:49,1.000,
    Until: 12:34,0.048,
    Until: 12:39,1.000,
    Until: 24:00,0.000,
    Through: 1/30,
    For: AllDays,
    Until: 02:00,0.000,
    Until: 02:02,1.000,
    Until: 02:47,0.048,
    Until: 02:52,1.000,
    Until: 02:53,0.000,
    Until: 02:55,1.000,
    Until: 03:40,0.048,
    Until: 03:45,1.000,
    Until: 07:18,0.000,
    Until: 07:20,1.000,
    Until: 08:05,0.048,
    Until: 08:10,1.000,
    Until: 08:48,0.000,
    Until: 08:50,1.000,
    Until: 09:35,0.048,
    Until: 09:40,1.000,
    Until: 12:16,0.000,
    Until: 12:18,1.000,
    Until: 13:03,0.048,
    Until: 13:08,1.000,
    Until: 13:19,0.000,
    Until: 13:21,1.000,
    Until: 14:06,0.048,
    Until: 14:11,1.000,
    Until: 17:04,0.000,
    Until: 17:06,1.000,
    Until: 17:51,0.048,
    Until: 17:56,1.000,
    Until: 24:00,0.000,
    Through: 1/31,
    For: AllDays,
    Until: 24:00,0.000,
    Through: 2/1,
    For: AllDays,
    Until: 24:00,0.000,
    Through: 2/2,
    For: AllDays,
    Until: 02:58,0.000,
    Until: 03:00,1.000,
    Until: 03:45,0.048,
    Until: 03:50,1.000,
    Until: 03:51,0.000,
    Until: 03:53,1.000,
    Until: 04:38,0.048,
    Until: 04:43,1.000,
    Until: 06:01,0.000,
    Until: 06:03,1.000,
    Until: 06:48,0.048,
    Until: 06:53,1.000,
    Until: 10:33,0.000,
    Until: 10:35,1.000,
    Until: 11:20,0.048,
    Until: 11:25,1.000,
    Until: 12:52,0.000,
    Until: 12:54,1.000,
    Until: 13:39,0.048,
    Until: 13:44,1.000,
    Until: 18:39,0.000,
    Until: 18:41,1.000,
    Until: 19:26,0.048,
    Until: 19:31,1.000,
    Until: 24:00,0.000,
    Through: 2/3,
    For: AllDays,
    Until: 01:44,0.000,
    Until: 01:46,1.000,
    Until: 02:31,0.048,
    Until: 02:36,1.000,
    Until: 02:51,0.000,
    Until: 02:53,1.000,
    Until: 03:38,0.048,
    Until: 03:43,1.000,
    Until: 03:44,0.000,
    Until: 03:46,1.000,
    Until: 04:31,0.048,
    Until: 04:36,1.000,
    Until: 06:12,0.000,
    Until: 06:14,1.000,
    Until: 06:59,0.048,
    Until: 07:04,1.000,
    Until: 12:14,0.000,
    Until: 12:16,1.000,
    Until: 13:01,0.048,
    Until: 13:06,1.000,
    Until: 17:48,0.000,
    Until: 17:50,1.000,
    Until: 18:35,0.048,
    Until: 18:40,1.000,
    Until: 24:00,0.000,
    Through: 2/4,
    For: AllDays,
    Until: 00:59,0.000,
    Until: 01:01,1.000,
    Until: 01:46,0.048,
    Until: 01:51,1.000,
    Until: 02:32,0.000,
    Until: 02:34,1.000,
    Until: 03:19,0.048,
    Until: 03:24,1.000,
    Until: 08:14,0.000,
    Until: 08:16,1.000,
    Until: 09:01,0.048,
    Until: 09:06,1.000,
    Until: 11:37,0.000,
    Until: 11:39,1.000,
    Until: 12:24,0.048,
    Until: 12:29,1.000,
    Until: 13:00,0.000,
    Until: 13:02,1.000,
    Until: 13:47,0.048,
    Until: 13:52,1.000,
    Until: 24:00,0.000,
    Through: 2/5,
    For: AllDays,
    Until: 01:57,0.000,
    Until: 01:59,1.000,
    Until: 02:44,0.048,
    Until: 02:49,1.000,
    Until: 02:50,0.000,
    Until: 02:52,1.000,
    Until: 03:37,0.048,
    Until: 03:42,1.000,
    Until: 07:31,0.000,
    Until: 07:33,1.000,
    Until: 08:18,0.048,
    Until: 08:23,1.000,
    Until: 08:55,0.000,
    Until: 08:57,1.000,
    Until: 09:42,0.048,
    Until: 09:47,1.000,
    Until: 11:46,0.000,
    Until: 11:48,1.000,
    Until: 12:33,0.048,
    Until: 12:38,1.000,
    Until: 14:04,0.000,
    Until: 14:06,1.000,
    Until: 14:51,0.048,
    Until: 14:56,1.000,
    Until: 17:39,0.000,
    Until: 17:41,1.000,
    Until: 18:26,0.048,
    Until: 18:31,1.000,
    Until: 24:00,0.000,
    Through: 2/6,
    For: AllDays,
    Until: 01:09,0.000,
    Until: 01:11,1.000,
    Until: 01:56,0.048,
    Until: 02:01,1.000,
    Until: 02:50,0.000,
    Until: 02:52,1.000,
    Until: 03:37,0.048,
    Until: 03:42,1.000,
    Until: 03:43,0.000,
    Until: 03:45,1.000,
    Until: 04:30,0.048,
    Until: 04:35,1.000,
    Until: 08:25,0.000,
    Until: 08:27,1.000,
    Until: 09:12,0.048,
    Until: 09:17,1.000,
    Until: 11:58,0.000,
    Until: 12:00,1.000,
    Until: 12:45,0.048,
    Until: 12:50,1.000,
    Until: 18:25,0.000,
    Until: 18:27,1.000,
    Until: 19:12,0.048,
    Until: 19:17,1.000,
    Until: 24:00,0.000,
    Through: 2/7,
    For: AllDays,
    Until: 24:00,0.000,
    Through: 2/8,
    For: AllDays,
    Until: 24:00,0.000,
    Through: 2/9,
    For: AllDays,
    Until: 01:06,0.000,
    Until: 01:08,1.000,
    Until: 01:53,0.048,
    Until: 01:58,1.000,
    Until: 03:28,0.000,
    Until: 03:30,1.000,
    Until: 04:15,0.048,
    Until: 04:20,1.000,
    Until: 04:38,0.000,
    Until: 04:40,1.000,
    Until: 05:25,0.048,
    Until: 05:30,1.000,
    Until: 07:53,0.000,
    Until: 07:55,1.000,
    Until: 08:40,0.048,
    Until: 08:45,1.000,
    Until: 10:08,0.000,
    Until: 10:10,1.000,
    Until: 10:55,0.048,
    Until: 11:00,1.000,
    Until: 12:38,0.000,
    Until: 12:40,1.000,
    Until: 13:25,0.048,
    Until: 13:30,1.000,
    Until: 24:00,0.000,
    Through: 2/10,
    For: AllDays,
    Until: 00:36,0.000,
    Until: 00:38,1.000,
    Until: 01:23,0.048,
    Until: 01:28,1.000,
    Until: 01:31,0.000,
    Until: 01:33,1.000,
    Until: 02:18,0.048,
    Until: 02:23,1.000,
    Until: 08:20,0.000,
    Until: 08:22,1.000,
    Until: 09:07,0.048,
    Until: 09:12,1.000,
    Until: 11:16,0.000,
    Until: 11:18,1.000,
    Until: 12:03,0.048,
    Until: 12:08,1.000,
    Until: 13:19,0.000,
    Until: 13:21,1.000,
    Until: 14:06,0.048,
    Until: 14:11,1.000,
    Until: 18:28,0.000,
    Until: 18:30,1.000,
    Until: 19:15,0.048,
    Until: 19:20,1.000,
    Until: 24:00,0.000,
    Through: 2/11,
    For: AllDays,
    Until: 00:39,0.000,
    Until: 00:41,1.000,
    Until: 01:26,0.048,
    Until: 01:31,1.000,
    Until: 01:32,0.000,
    Until: 01:34,1.000,
    Until: 02:19,0.048,
    Until: 02:24,1.000,
    Until: 03:26,0.000,
    Until: 03:28,1.000,
    Until: 04:13,0.048,
    Until: 04:18,1.000,
    Until: 07:46,0.000,
    Until: 07:48,1.000,
    Until: 08:33,0.048,
    Until: 08:38,1.000,
    Until: 11:05,0.000,
    Until: 11:07,1.000,
    Until: 11:52,0.048,
    Until: 11:57,1.000,
    Until: 17:37,0.000,
    Until: 17:39,1.000,
    Until: 18:24,0.048,
    Until: 18:29,1.000,
    Until: 24:00,0.000,
    Through: 2/12,
    For: AllDays,
    Until: 00:40,0.000,
    Until: 00:42,1.000,
    Until: 01:27,0.048,
    Until: 01:32,1.000,
    Until: 02:55,0.000,
    Until: 02:57,1.000,
    Until: 03:42,0.048,
    Until: 03:47,1.000,
    Until: 03:51,0.000,
    Until: 03:53,1.000,
    Until: 04:38,0.048,
    Until: 04:43,1.000,
    Until: 06:15,0.000,
    Until: 06:17,1.000,
    Until: 07:02,0.048,
    Until: 07:07,1.000,
    Until: 12:02,0.000,
    Until: 12:04,1.000,
    Until: 12:49,0.048,
    Until: 12:54,1.000,
    Until: 13:04,0.000,
    Until: 13:06,1.000,
    Until: 13:51,0.048,
    Until: 13:56,1.000,
    Until: 24:00,0.000,
    Through: 2/13,
    For: AllDays,
    Until: 01:54,0.000,
    Until: 01:56,1.000,
    Until: 02:41,0.048,
    Until: 02:46,1.000,
    Until: 03:01,0.000,
    Until: 03:03,1.000,
    Until: 03:48,0.048,
    Until: 03:53,1.000,
    Until: 04:10,0.000,
    Until: 04:12,1.000,
    Until: 04:57,0.048,
    Until: 05:02,1.000,
    Until: 11:25,0.000,
    Until: 11:27,1.000,
    Until: 12:12,0.048,
    Until: 12:17,1.000,
    Until: 24:00,0.000,
    Through: 2/14,
    For: AllDays,
    Until: 24:00,0.000,
    Through: 2/15,
    For: AllDays,
    Until: 24:00,0.000,
    Through: 2/16,
    For: AllDays,
    Until: 02:16,0.000,
    Until: 02:18,1.000,
    Until: 03:03,0.048,
    Until: 03:08,1.000,
    Until: 03:09,0.000,
    Until: 03:11,1.000,
    Until: 03:56,0.048,
    Until: 04:01,1.000,
    Until: 12:05,0.000,
    Until: 12:07,1.000,
    Until: 12:52,0.048,
    Until: 12:57,1.000,
    Until: 24:00,0.000,
    Through: 2/17,
    For: AllDays,
    Until: 01:57,0.000,
    Until: 01:59,1.000,
    Until: 02:44,0.048,
    Until: 02:49,1.000,
    Until: 03:01,0.000,
    Until: 03:03,1.000,
    Until: 03:48,0.048,
    Until: 03:53,1.000,
    Until: 03:54,0.000,
    Until: 03:56,1.000,
    Until: 04:41,0.048,
    Until: 04:46,1.000,
    Until: 07:45,0.000,
    Until: 07:47,1.000,
    Until: 08:32,0.048,
    Until: 08:37,1.000,
    Until: 12:10,0.000,
    Until: 12:12,1.000,
    Until: 12:57,0.048,
    Until: 13:02,1.000,
    Until: 13:28,0.000,
    Until: 13:30,1.000,
    Until: 14:15,0.048,
    Until: 14:20,1.000,
    Until: 24:00,0.000,
    Through: 2/18,
    For: AllDays,
    Until: 00:53,0.000,
    Until: 00:55,1.000,
    Until: 01:40,0.048,
    Until: 01:45,1.000,
    Until: 01:57,0.000,
    Until: 01:59,1.000,
    Until: 02:44,0.048,
    Until: 02:49,1.000,
    Until: 03:41,0.000,
    Until: 03:43,1.000,
    Until: 04:28,0.048,
    Until: 04:33,1.000,
    Until: 11:33,0.000,
    Until: 11:35,1.000,
    Until: 12:20,0.048,
    Until: 12:25,1.000,
    Until: 18:02,0.000,
    Until: 18:04,1.000,
    Until: 18:49,0.048,
    Until: 18:54,1.000,
    Until: 24:00,0.000,
    Through: 2/19,
    For: AllDays,
    Until: 01:09,0.000,
    Until: 01:11,1.000,
    Until: 01:56,0.048,
    Until: 02:01,1.000,
    Until: 02:09,0.000,
    Until: 02:11,1.000,
    Until: 02:56,0.048,
    Until: 03:01,1.000,
    Until: 04:15,0.000,
    Until: 04:17,1.000,
    Until: 05:02,0.048,
    Until: 05:07,1.000,
    Until: 06:44,0.000,
    Until: 06:46,1.000,
    Until: 07:31,0.048,
    Until: 07:36,1.000,
    Until: 08:14,0.000,
    Until: 08:16,1.000,
    Until: 09:01,0.048,
    Until: 09:06,1.000,
    Until: 11:48,0.000,
    Until: 11:50,1.000,
    Until: 12:35,0.048,
    Until: 12:40,1.000,
    Until: 12:48,0.000,
    Until: 12:50,1.000,
    Until: 13:35,0.048,
    Until: 13:40,1.000,
    Until: 24:00,0.000,
    Through: 2/20,
    For: AllDays,
    Until: 01:22,0.000,
    Until: 01:24,1.000,
    Until: 02:09,0.048,
    Until: 02:14,1.000,
    Until: 02:44,0.000,
    Until: 02:46,1.000,
    Until: 03:31,0.048,
    Until: 03:36,1.000,
    Until: 03:40,0.000,
    Until: 03:42,1.000,
    Until: 04:27,0.048,
    Until: 04:32,1.000,
    Until: 06:04,0.000,
    Until: 06:06,1.000,
    Until: 06:51,0.048,
    Until: 06:56,1.000,
    Until: 08:28,0.000,
    Until: 08:30,1.000,
    Until: 09:15,0.048,
    Until: 09:20,1.000,
    Until: 12:58,0.000,
    Until: 13:00,1.000,
    Until: 13:45,0.048,
    Until: 13:50,1.000,
    Until: 24:00,0.000,
    Through: 2/21,
    For: AllDays,
    Until: 24:00,0.000,
    Through: 2/22,
    For: AllDays,
    Until: 24:00,0.000,
    Through: 2/23,
    For: AllDays,
    Until: 01:26,0.000,
    Until: 01:28,1.000,
    Until: 02:13,0.048,
    Until: 02:18,1.000,
    Until: 07:38,0.000,
    Until: 07:40,1.000,
    Until: 08:25,0.048,
    Until: 08:30,1.000,
    Until: 13:17,0.000,
    Until: 13:19,1.000,
    Until: 14:04,0.048,
    Until: 14:09,1.000,
    Until: 24:00,0.000,
    Through: 2/24,
    For: AllDays,
    Until: 02:02,0.000,
    Until: 02:04,1.000,
    Until: 02:49,0.048,
    Until: 02:54,1.000,
    Until: 03:05,0.000,
    Until: 03:07,1.000,
    Until: 03:52,0.048,
    Until: 03:57,1.000,
    Until: 07:18,0.000,
    Until: 07:20,1.000,
    Until: 08:05,0.048,
    Until: 08:10,1.000,
    Until: 08:30,0.000,
    Until: 08:32,1.000,
    Until: 09:17,0.048,
    Until: 09:22,1.000,
    Until: 12:10,0.000,
    Until: 12:12,1.000,
    Until: 12:57,0.048,
    Until: 13:02,1.000,
    Until: 13:19,0.000,
    Until: 13:21,1.000,
    Until: 14:06,0.048,
    Until: 14:11,1.000,
    Until: 18:07,0.000,
    Until: 18:09,1.000,
    Until: 18:54,0.048,
    Until: 18:59,1.000,
    Until: 24:00,0.000,
    Through: 2/25,
    For: AllDays,
    Until: 02:14,0.000,
    Until: 02:16,1.000,
    Until: 03:01,0.048,
    Until: 03:06,1.000,
    Until: 03:07,0.000,
    Until: 03:09,1.000,
    Until: 03:54,0.048,
    Until: 03:59,1.000,
    Until: 06:50,0.000,
    Until: 06:52,1.000,
    Until: 07:37,0.048,
    Until: 07:42,1.000,
    Until: 11:32,0.000,
    Until: 11:34,1.000,
    Until: 12:19,0.048,
    Until: 12:24,1.000,
    Until: 24:00,0.000,
    Through: 2/26,
    For: AllDays,
    Until: 02:29,0.000,
    Until: 02:31,1.000,
    Until: 03:16,0.048,
    Until: 03:21,1.000,
    Until: 03:22,0.000,
    Until: 03:24,1.000,
    Until: 04:09,0.048,
    Until: 04:14,1.000,
    Until: 08:03,0.000,
    Until: 08:05,1.000,
    Until: 08:50,0.048,
    Until: 08:55,1.000,
    Until: 10:43,0.000,
    Until: 10:45,1.000,
    Until: 11:30,0.048,
    Until: 11:35,1.000,
    Until: 13:04,0.000,
    Until: 13:06,1.000,
    Until: 13:51,0.048,
    Until: 13:56,1.000,
    Until: 17:42,0.000,
    Until: 17:44,1.000,
    Until: 18:29,0.048,
    Until: 18:34,1.000,
    Until: 24:00,0.000,
    Through: 2/27,
    For: AllDays,
    Until: 02:22,0.000,
    Until: 02:24,1.000,
    Until: 03:09,0.048,
    Until: 03:14,1.000,
    Until: 03:18,0.000,
    Until: 03:20,1.000,
    Until: 04:05,0.048,
    Until: 04:10,1.000,
    Until: 04:27,0.000,
    Until: 04:29,1.000,
    Until: 05:14,0.048,
    Until: 05:19,1.000,
    Until: 05:58,0.000,
    Until: 06:00,1.000,
    Until: 06:45,0.048,
    Until: 06:50,1.000,
    Until: 12:07,0.000,
    Until: 12:09,1.000,
    Until: 12:54,0.048,
    Until: 12:59,1.000,
    Until: 14:04,0.000,
    Until: 14:06,1.000,
    Until: 14:51,0.048,
    Until: 14:56,1.000,
    Until: 24:00,0.000,
    Through: 2/28,
    For: AllDays,
    Until: 24:00,0.000,
    Through: 3/1,
    For: AllDays,
    Until: 24:00,0.000,
    Through: 3/2,
    For: AllDays,
    Until: 00:58,0.000,
    Until: 01:00,1.000,
    Until: 01:45,0.048,
    Until: 01:50,1.000,
    Until: 02:44,0.000,
    Until: 02:46,1.000,
    Until: 03:31,0.048,
    Until: 03:36,1.000,
    Until: 04:23,0.000,
    Until: 04:25,1.000,
    Until: 05:10,0.048,
    Until: 05:15,1.000,
    Until: 08:20,0.000,
    Until: 08:22,1.000,
    Until: 09:07,0.048,
    Until: 09:12,1.000,
    Until: 17:30,0.000,
    Until: 17:32,1.000,
    Until: 18:17,0.048,
    Until: 18:22,1.000,
    Until: 24:00,0.000,
    Through: 3/3,
    For: AllDays,
    Until: 00:43,0.000,
    Until: 00:45,1.000,
    Until: 01:30,0.048,
    Until: 01:35,1.000,
    Until: 03:14,0.000,
    Until: 03:16,1.000,
    Until: 04:01,0.048,
    Until: 04:06,1.000,
    Until: 04:07,0.000,
    Until: 04:09,1.000,
    Until: 04:54,0.048,
    Until: 04:59,1.000,
    Until: 09:47,0.000,
    Until: 09:49,1.000,
    Until: 10:34,0.048,
    Until: 10:39,1.000,
    Until: 12:43,0.000,
    Until: 12:45,1.000,
    Until: 13:30,0.048,
    Until: 13:35,1.000,
    Until: 24:00,0.000,
    Through: 3/4,
    For: AllDays,
    Until: 02:04,0.000,
    Until: 02:06,1.000,
    Until: 02:51,0.048,
    Until: 02:56,1.000,
    Until: 03:44,0.000,
    Until: 03:46,1.000,
    Until: 04:31,0.048,
    Until: 04:36,1.000,
    Until: 06:42,0.000,
    Until: 06:44,1.000,
    Until: 07:29,0.048,
    Until: 07:34,1.000,
    Until: 13:28,0.000,
    Until: 13:30,1.000,
    Until: 14:15,0.048,
    Until: 14:20,1.000,
    Until: 24:00,0.000,
    Through: 3/5,
    For: AllDays,
    Until: 02:03,0.000,
    Until: 02:05,1.000,
    Until: 02:50,0.048,
    Until: 02:55,1.000,
    Until: 03:15,0.000,
    Until: 03:17,1.000,
    Until: 04:02,0.048,
    Until: 04:07,1.000,
    Until: 12:27,0.000,
    Until: 12:29,1.000,
    Until: 13:14,0.048,
    Until: 13:19,1.000,
    Until: 24:00,0.000,
    Through: 3/6,
    For: AllDays,
    Until: 00:51,0.000,
    Until: 00:53,1.000,
    Until: 01:38,0.048,
    Until: 01:43,1.000,
    Until: 13:51,0.000,
    Until: 13:53,1.000,
    Until: 14:38,0.048,
    Until: 14:43,1.000,
    Until: 17:46,0.000,
    Until: 17:48,1.000,
    Until: 18:33,0.048,
    Until: 18:38,1.000,
    Until: 24:00,0.000,
    Through: 3/7,
    For: AllDays,
    Until: 24:00,0.000,
    Through: 3/8,
    For: AllDays,
    Until: 24:00,0.000,
    Through: 3/9,
    For: AllDays,
    Until: 01:59,0.000,
    Until: 02:01,1.000,
    Until: 02:46,0.048,
    Until: 02:51,1.000,
    Until: 07:27,0.000,
    Until: 07:29,1.000,
    Until: 08:14,0.048,
    Until: 08:19,1.000,
    Until: 08:46,0.000,
    Until: 08:48,1.000,
    Until: 09:33,0.048,
    Until: 09:38,1.000,
    Until: 24:00,0.000,
    Through: 3/10,
    For: AllDays,
    Until: 01:50,0.000,
    Until: 01:52,1.000,
    Until: 02:37,0.048,
    Until: 02:42,1.000,
    Until: 03:28,0.000,
    Until: 03:30,1.000,
    Until: 04:15,0.048,
    Until: 04:20,1.000,
    Until: 12:42,0.000,
    Until: 12:44,1.000,
    Until: 13:29,0.048,
    Until: 13:34,1.000,
    Until: 14:11,0.000,
    Until: 14:13,1.000,
    Until: 14:58,0.048,
    Until: 15:03,1.000,
    Until: 17:53,0.000,
    Until: 17:55,1.000,
    Until: 18:40,0.048,
    Until: 18:45,1.000,
    Until: 24:00,0.000,
    Through: 3/11,
    For: AllDays,
    Until: 01:27,0.000,
    Until: 01:29,1.000,
    Until: 02:14,0.048,
    Until: 02:19,1.000,
    Until: 02:45,0.000,
    Until: 02:47,1.000,
    Until: 03:32,0.048,
    Until: 03:37,1.000,
    Until: 10:15,0.000,
    Until: 10:17,1.000,
    Until: 11:02,0.048,
    Until: 11:07,1.000,
    Until: 24:00,0.000,
    Through: 3/12,
    For: AllDays,
    Until: 01:07,0.000,
    Until: 01:09,1.000,
    Until: 01:54,0.048,
    Until: 01:59,1.000,
    Until: 02:25,0.000,
    Until: 02:27,1.000,
    Until: 03:12,0.048,
    Until: 03:17,1.000,
    Until: 07:59,0.000,
    Until: 08:01,1.000,
    Until: 08:46,0.048,
    Until: 08:51,1.000,
    Until: 11:49,0.000,
    Until: 11:51,1.000,
    Until: 12:36,0.048,
    Until: 12:41,1.000,
    Until: 24:00,0.000,
    Through: 3/13,
    For: AllDays,
    Until: 01:07,0.000,
    Until: 01:09,1.000,
    Until: 01:54,0.048,
    Until: 01:59,1.000,
    Until: 02:31,0.000,
    Until: 02:33,1.000,
    Until: 03:18,0.048,
    Until: 03:23,1.000,
    Until: 08:16,0.000,
    Until: 08:18,1.000,
    Until: 09:03,0.048,
    Until: 09:08,1.000,
    Until: 11:17,0.000,
    Until: 11:19,1.000,
    Until: 12:04,0.048,
    Until: 12:09,1.000,
    Until: 24:00,0.000,
    Through: 3/14,
    For: AllDays,
    Until: 24:00,0.000,
    Through: 3/15,
    For: AllDays,
    Until: 24:00,0.000,
    Through: 3/16,
    For: AllDays,
    Until: 00:43,0.000,
    Until: 00:45,1.000,
    Until: 01:30,0.048,
    Until: 01:35,1.000,
    Until: 03:08,0.000,
    Until: 03:10,1.000,
    Until: 03:55,0.048,
    Until: 04:00,1.000,
    Until: 07:14,0.000,
    Until: 07:16,1.000,
    Until: 08:01,0.048,
    Until: 08:06,1.000,
    Until: 13:37,0.000,
    Until: 13:39,1.000,
    Until: 14:24,0.048,
    Until: 14:29,1.000,
    Until: 24:00,0.000,
    Through: 3/17,
    For: AllDays,
    Until: 01:41,0.000,
    Until: 01:43,1.000,
    Until: 02:28,0.048,
    Until: 02:33,1.000,
    Until: 02:50,0.000,
    Until: 02:52,1.000,
    Until: 03:37,0.048,
    Until: 03:42,1.000,
    Until: 05:00,0.000,
    Until: 05:02,1.000,
    Until: 05:47,0.048,
    Until: 05:52,1.000,
    Until: 10:58,0.000,
    Until: 11:00,1.000,
    Until: 11:45,0.048,
    Until: 11:50,1.000,
    Until: 13:20,0.000,
    Until: 13:22,1.000,
    Until: 14:07,0.048,
    Until: 14:12,1.000,
    Until: 18:08,0.000,
    Until: 18:10,1.000,
    Until: 18:55,0.048,
    Until: 19:00,1.000,
    Until: 24:00,0.000,
    Through: 3/18,
    For: AllDays,
    Until: 02:07,0.000,
    Until: 02:09,1.000,
    Until: 02:54,0.048,
    Until: 02:59,1.000,
    Until: 04:01,0.000,
    Until: 04:03,1.000,
    Until: 04:48,0.048,
    Until: 04:53,1.000,
    Until: 06:46,0.000,
    Until: 06:48,1.000,
    Until: 07:33,0.048,
    Until: 07:38,1.000,
    Until: 11:11,0.000,
    Until: 11:13,1.000,
    Until: 11:58,0.048,
    Until: 12:03,1.000,
    Until: 24:00,0.000,
    Through: 3/19,
    For: AllDays,
    Until: 00:55,0.000,
    Until: 00:57,1.000,
    Until: 01:42,0.048,
    Until: 01:47,1.000,
    Until: 03:16,0.000,
    Until: 03:18,1.000,
    Until: 04:03,0.048,
    Until: 04:08,1.000,
    Until: 08:01,0.000,
    Until: 08:03,1.000,
    Until: 08:48,0.048,
    Until: 08:53,1.000,
    Until: 11:34,0.000,
    Until: 11:36,1.000,
    Until: 12:21,0.048,
    Until: 12:26,1.000,
    Until: 24:00,0.000,
    Through: 3/20,
    For: AllDays,
    Until: 00:10,0.000,
    Until: 00:12,1.000,
    Until: 00:57,0.048,
    Until: 01:02,1.000,
    Until: 02:35,0.000,
    Until: 02:37,1.000,
    Until: 03:22,0.048,
    Until: 03:27,1.000,
    Until: 07:37,0.000,
    Until: 07:39,1.000,
    Until: 08:24,0.048,
    Until: 08:29,1.000,
    Until: 12:16,0.000,
    Until: 12:18,1.000,
    Until: 13:03,0.048,
    Until: 13:08,1.000,
    Until: 13:26,0.000,
    Until: 13:28,1.000,
    Until: 14:13,0.048,
    Until: 14:18,1.000,
    Until: 24:00,0.000,
    Through: 3/21,
    For: AllDays,
    Until: 24:00,0.000,
    Through: 3/22,
    For: AllDays,
    Until: 24:00,0.000,
    Through: 3/23,
    For: AllDays,
    Until: 01:53,0.000,
    Until: 01:55,1.000,
    Until: 02:40,0.048,
    Until: 02:45,1.000,
    Until: 03:04,0.000,
    Until: 03:06,1.000,
    Until: 03:51,0.048,
    Until: 03:56,1.000,
    Until: 05:13,0.000,
    Until: 05:15,1.000,
    Until: 06:00,0.048,
    Until: 06:05,1.000,
    Until: 08:28,0.000,
    Until: 08:30,1.000,
    Until: 09:15,0.048,
    Until: 09:20,1.000,
    Until: 11:20,0.000,
    Until: 11:22,1.000,
    Until: 12:07,0.048,
    Until: 12:12,1.000,
    Until: 17:18,0.000,
    Until: 17:20,1.000,
    Until: 18:05,0.048,
    Until: 18:10,1.000,
    Until: 24:00,0.000,
    Through: 3/24,
    For: AllDays,
    Until: 02:46,0.000,
    Until: 02:48,1.000,
    Until: 03:33,0.048,
    Until: 03:38,1.000,
    Until: 03:39,0.000,
    Until: 03:41,1.000,
    Until: 04:26,0.048,
    Until: 04:31,1.000,
    Until: 07:24,0.000,
    Until: 07:26,1.000,
    Until: 08:11,0.048,
    Until: 08:16,1.000,
    Until: 11:52,0.000,
    Until: 11:54,1.000,
    Until: 12:39,0.048,
    Until: 12:44,1.000,
    Until: 24:00,0.000,
    Through: 3/25,
    For: AllDays,
    Until: 01:18,0.000,
    Until: 01:20,1.000,
    Until: 02:05,0.048,
    Until: 02:10,1.000,
    Until: 02:13,0.000,
    Until: 02:15,1.000,
    Until: 03:00,0.048,
    Until: 03:05,1.000,
    Until: 03:53,0.000,
    Until: 03:55,1.000,
    Until: 04:40,0.048,
    Until: 04:45,1.000,
    Until: 08:33,0.000,
    Until: 08:35,1.000,
    Until: 09:20,0.048,
    Until: 09:25,1.000,
    Until: 11:10,0.000,
    Until: 11:12,1.000,
    Until: 11:57,0.048,
    Until: 12:02,1.000,
    Until: 13:35,0.000,
    Until: 13:37,1.000,
    Until: 14:22,0.048,
    Until: 14:27,1.000,
    Until: 18:14,0.000,
    Until: 18:16,1.000,
    Until: 19:01,0.048,
    Until: 19:06,1.000,
    Until: 24:00,0.000,
    Through: 3/26,
    For: AllDays,
    Until: 02:37,0.000,
    Until: 02:39,1.000,
    Until: 03:24,0.048,
    Until: 03:29,1.000,
    Until: 03:30,0.000,
    Until: 03:32,1.000,
    Until: 04:17,0.048,
    Until: 04:22,1.000,
    Until: 08:45,0.000,
    Until: 08:47,1.000,
    Until: 09:32,0.048,
    Until: 09:37,1.000,
    Until: 10:39,0.000,
    Until: 10:41,1.000,
    Until: 11:26,0.048,
    Until: 11:31,1.000,
    Until: 17:44,0.000,
    Until: 17:46,1.000,
    Until: 18:31,0.048,
    Until: 18:36,1.000,
    Until: 24:00,0.000,
    Through: 3/27,
    For: AllDays,
    Until: 02:10,0.000,
    Until: 02:12,1.000,
    Until: 02:57,0.048,
    Until: 03:02,1.000,
    Until: 03:15,0.000,
    Until: 03:17,1.000,
    Until: 04:02,0.048,
    Until: 04:07,1.000,
    Until: 12:28,0.000,
    Until: 12:30,1.000,
    Until: 13:15,0.048,
    Until: 13:20,1.000,
    Until: 13:42,0.000,
    Until: 13:44,1.000,
    Until: 14:29,0.048,
    Until: 14:34,1.000,
    Until: 24:00,0.000,
    Through: 3/28,
    For: AllDays,
    Until: 24:00,0.000,
    Through: 3/29,
    For: AllDays,
    Until: 24:00,0.000,
    Through: 3/30,
    For: AllDays,
    Until: 01:30,0.000,
    Until: 01:32,1.000,
    Until: 02:17,0.048,
    Until: 02:22,1.000,
    Until: 06:50,0.000,
    Until: 06:52,1.000,
    Until: 07:37,0.048,
    Until: 07:42,1.000,
    Until: 09:01,0.000,
    Until: 09:03,1.000,
    Until: 09:48,0.048,
    Until: 09:53,1.000,
    Until: 12:58,0.000,
    Until: 13:00,1.000,
    Until: 13:45,0.048,
    Until: 13:50,1.000,
    Until: 16:13,0.000,
    Until: 16:15,1.000,
    Until: 17:00,0.048,
    Until: 17:05,1.000,
    Until: 24:00,0.000,
    Through: 3/31,
    For: AllDays,
    Until: 01:32,0.000,
    Until: 01:34,1.000,
    Until: 02:19,0.048,
    Until: 02:24,1.000,
    Until: 02:38,0.000,
    Until: 02:40,1.000,
    Until: 03:25,0.048,
    Until: 03:30,1.000,
    Until: 09:03,0.000,
    Until: 09:05,1.000,
    Until: 09:50,0.048,
    Until: 09:55,1.000,
    Until: 24:00,0.000,
    Through: 4/1,
    For: AllDays,
    Until: 03:24,0.000,
    Until: 03:26,1.000,
    Until: 04:11,0.048,
    Until: 04:16,1.000,
    Until: 04:17,0.000,
    Until: 04:19,1.000,
    Until: 05:04,0.048,
    Until: 05:09,1.000,
    Until: 13:18,0.000,
    Until: 13:20,1.000,
    Until: 14:05,0.048,
    Until: 14:10,1.000,
    Until: 24:00,0.000,
    Through: 4/2,
    For: AllDays,
    Until: 01:44,0.000,
    Until: 01:46,1.000,
    Until: 02:31,0.048,
    Until: 02:36,1.000,
    Until: 02:49,0.000,
    Until: 02:51,1.000,
    Until: 03:36,0.048,
    Until: 03:41,1.000,
    Until: 06:41,0.000,
    Until: 06:43,1.000,
    Until: 07:28,0.048,
    Until: 07:33,1.000,
    Until: 12:59,0.000,
    Until: 13:01,1.000,
    Until: 13:46,0.048,
    Until: 13:51,1.000,
    Until: 24:00,0.000,
    Through: 4/3,
    For: AllDays,
    Until: 01:03,0.000,
    Until: 01:05,1.000,
    Until: 01:50,0.048,
    Until: 01:55,1.000,
    Until: 04:08,0.000,
    Until: 04:10,1.000,
    Until: 04:55,0.048,
    Until: 05:00,1.000,
    Until: 12:49,0.000,
    Until: 12:51,1.000,
    Until: 13:36,0.048,
    Until: 13:41,1.000,
    Until: 18:13,0.000,
    Until: 18:15,1.000,
    Until: 19:00,0.048,
    Until: 19:05,1.000,
    Until: 24:00,0.000,
    Through: 4/4,
    For: AllDays,
    Until: 24:00,0.000,
    Through: 4/5,
    For: AllDays,
    Until: 24:00,0.000,
    Through: 4/6,
    For: AllDays,
    Until: 01:42,0.000,
    Until: 01:44,1.000,
    Until: 02:29,0.048,
    Until: 02:34,1.000,
    Until: 03:52,0.000,
    Until: 03:54,1.000,
    Until: 04:39,0.048,
    Until: 04:44,1.000,
    Until: 07:20,0.000,
    Until: 07:22,1.000,
    Until: 08:07,0.048,
    Until: 08:12,1.000,
    Until: 12:16,0.000,
    Until: 12:18,1.000,
    Until: 13:03,0.048,
    Until: 13:08,1.000,
    Until: 18:36,0.000,
    Until: 18:38,1.000,
    Until: 19:23,0.048,
    Until: 19:28,1.000,
    Until: 24:00,0.000,
    Through: 4/7,
    For: AllDays,
    Until: 01:22,0.000,
    Until: 01:24,1.000,
    Until: 02:09,0.048,
    Until: 02:14,1.000,
    Until: 06:46,0.000,
    Until: 06:48,1.000,
    Until: 07:33,0.048,
    Until: 07:38,1.000,
    Until: 12:15,0.000,
    Until: 12:17,1.000,
    Until: 13:02,0.048,
    Until: 13:07,1.000,
    Until: 18:54,0.000,
    Until: 18:56,1.000,
    Until: 19:41,0.048,
    Until: 19:46,1.000,
    Until: 24:00,0.000,
    Through: 4/8,
    For: AllDays,
    Until: 00:43,0.000,
    Until: 00:45,1.000,
    Until: 01:30,0.048,
    Until: 01:35,1.000,
    Until: 02:03,0.000,
    Until: 02:05,1.000,
    Until: 02:50,0.048,
    Until: 02:55,1.000,
    Until: 04:02,0.000,
    Until: 04:04,1.000,
    Until: 04:49,0.048,
    Until: 04:54,1.000,
    Until: 07:44,0.000,
    Until: 07:46,1.000,
    Until: 08:31,0.048,
    Until: 08:36,1.000,
    Until: 11:10,0.000,
    Until: 11:12,1.000,
    Until: 11:57,0.048,
    Until: 12:02,1.000,
    Until: 13:06,0.000,
    Until: 13:08,1.000,
    Until: 13:53,0.048,
    Until: 13:58,1.000,
    Until: 14:31,0.000,
    Until: 14:33,1.000,
    Until: 15:18,0.048,
    Until: 15:23,1.000,
    Until: 24:00,0.000,
    Through: 4/9,
    For: AllDays,
    Until: 00:49,0.000,
    Until: 00:51,1.000,
    Until: 01:36,0.048,
    Until: 01:41,1.000,
    Until: 01:50,0.000,
    Until: 01:52,1.000,
    Until: 02:37,0.048,
    Until: 02:42,1.000,
    Until: 07:01,0.000,
    Until: 07:03,1.000,
    Until: 07:48,0.048,
    Until: 07:53,1.000,
    Until: 12:02,0.000,
    Until: 12:04,1.000,
    Until: 12:49,0.048,
    Until: 12:54,1.000,
    Until: 12:55,0.000,
    Until: 12:57,1.000,
    Until: 13:42,0.048,
    Until: 13:47,1.000,
    Until: 18:35,0.000,
    Until: 18:37,1.000,
    Until: 19:22,0.048,
    Until: 19:27,1.000,
    Until: 24:00,0.000,
    Through: 4/10,
    For: AllDays,
    Until: 02:03,0.000,
    Until: 02:05,1.000,
    Until: 02:50,0.048,
    Until: 02:55,1.000,
    Until: 03:42,0.000,
    Until: 03:44,1.000,
    Until: 04:29,0.048,
    Until: 04:34,1.000,
    Until: 07:27,0.000,
    Until: 07:29,1.000,
    Until: 08:14,0.048,
    Until: 08:19,1.000,
    Until: 11:44,0.000,
    Until: 11:46,1.000,
    Until: 12:31,0.048,
    Until: 12:36,1.000,
    Until: 13:46,0.000,
    Until: 13:48,1.000,
    Until: 14:33,0.048,
    Until: 14:38,1.000,
    Until: 17:09,0.000,
    Until: 17:11,1.000,
    Until: 17:56,0.048,
    Until: 18:01,1.000,
    Until: 24:00,0.000,
    Through: 4/11,
    For: AllDays,
    Until: 24:00,0.000,
    Through: 4/12,
    For: AllDays,
    Until: 24:00,0.000,
    Through: 4/13,
    For: AllDays,
    Until: 02:03,0.000,
    Until: 02:05,1.000,
    Until: 02:50,0.048,
    Until: 02:55,1.000,
    Until: 02:56,0.000,
    Until: 02:58,1.000,
    Until: 03:43,0.048,
    Until: 03:48,1.000,
    Until: 03:58,0.000,
    Until: 04:00,1.000,
    Until: 04:45,0.048,
    Until: 04:50,1.000,
    Until: 10:02,0.000,
    Until: 10:04,1.000,
    Until: 10:49,0.048,
    Until: 10:54,1.000,
    Until: 12:40,0.000,
    Until: 12:42,1.000,
    Until: 13:27,0.048,
    Until: 13:32,1.000,
    Until: 24:00,0.000,
    Through: 4/14,
    For: AllDays,
    Until: 01:12,0.000,
    Until: 01:14,1.000,
    Until: 01:59,0.048,
    Until: 02:04,1.000,
    Until: 02:05,0.000,
    Until: 02:07,1.000,
    Until: 02:52,0.048,
    Until: 02:57,1.000,
    Until: 03:46,0.000,
    Until: 03:48,1.000,
    Until: 04:33,0.048,
    Until: 04:38,1.000,
    Until: 07:54,0.000,
    Until: 07:56,1.000,
    Until: 08:41,0.048,
    Until: 08:46,1.000,
    Until: 12:30,0.000,
    Until: 12:32,1.000,
    Until: 13:17,0.048,
    Until: 13:22,1.000,
    Until: 24:00,0.000,
    Through: 4/15,
    For: AllDays,
    Until: 02:14,0.000,
    Until: 02:16,1.000,
    Until: 03:01,0.048,
    Until: 03:06,1.000,
    Until: 03:49,0.000,
    Until: 03:51,1.000,
    Until: 04:36,0.048,
    Until: 04:41,1.000,
    Until: 08:54,0.000,
    Until: 08:56,1.000,
    Until: 09:41,0.048,
    Until: 09:46,1.000,
    Until: 11:35,0.000,
    Until: 11:37,1.000,
    Until: 12:22,0.048,
    Until: 12:27,1.000,
    Until: 24:00,0.000,
    Through: 4/16,
    For: AllDays,
    Until: 03:20,0.000,
    Until: 03:22,1.000,
    Until: 04:07,0.048,
    Until: 04:12,1.000,
    Until: 04:13,0.000,
    Until: 04:15,1.000,
    Until: 05:00,0.048,
    Until: 05:05,1.000,
    Until: 07:13,0.000,
    Until: 07:15,1.000,
    Until: 08:00,0.048,
    Until: 08:05,1.000,
    Until: 11:21,0.000,
    Until: 11:23,1.000,
    Until: 12:08,0.048,
    Until: 12:13,1.000,
    Until: 12:37,0.000,
    Until: 12:39,1.000,
    Until: 13:24,0.048,
    Until: 13:29,1.000,
    Until: 24:00,0.000,
    Through: 4/17,
    For: AllDays,
    Until: 01:23,0.000,
    Until: 01:25,1.000,
    Until: 02:10,0.048,
    Until: 02:15,1.000,
    Until: 03:40,0.000,
    Until: 03:42,1.000,
    Until: 04:27,0.048,
    Until: 04:32,1.000,
    Until: 06:03,0.000,
    Until: 06:05,1.000,
    Until: 06:50,0.048,
    Until: 06:55,1.000,
    Until: 11:05,0.000,
    Until: 11:07,1.000,
    Until: 11:52,0.048,
    Until: 11:57,1.000,
    Until: 17:20,0.000,
    Until: 17:22,1.000,
    Until: 18:07,0.048,
    Until: 18:12,1.000,
    Until: 24:00,0.000,
    Through: 4/18,
    For: AllDays,
    Until: 24:00,0.000,
    Through: 4/19,
    For: AllDays,
    Until: 24:00,0.000,
    Through: 4/20,
    For: AllDays,
    Until: 00:52,0.000,
    Until: 00:54,1.000,
    Until: 01:39,0.048,
    Until: 01:44,1.000,
    Until: 03:52,0.000,
    Until: 03:54,1.000,
    Until: 04:39,0.048,
    Until: 04:44,1.000,
    Until: 08:27,0.000,
    Until: 08:29,1.000,
    Until: 09:14,0.048,
    Until: 09:19,1.000,
    Until: 12:10,0.000,
    Until: 12:12,1.000,
    Until: 12:57,0.048,
    Until: 13:02,1.000,
    Until: 17:26,0.000,
    Until: 17:28,1.000,
    Until: 18:13,0.048,
    Until: 18:18,1.000,
    Until: 24:00,0.000,
    Through: 4/21,
    For: AllDays,
    Until: 01:01,0.000,
    Until: 01:03,1.000,
    Until: 01:48,0.048,
    Until: 01:53,1.000,
    Until: 01:58,0.000,
    Until: 02:00,1.000,
    Until: 02:45,0.048,
    Until: 02:50,1.000,
    Until: 04:23,0.000,
    Until: 04:25,1.000,
    Until: 05:10,0.048,
    Until: 05:15,1.000,
    Until: 11:41,0.000,
    Until: 11:43,1.000,
    Until: 12:28,0.048,
    Until: 12:33,1.000,
    Until: 13:05,0.000,
    Until: 13:07,1.000,
    Until: 13:52,0.048,
    Until: 13:57,1.000,
    Until: 24:00,0.000,
    Through: 4/22,
    For: AllDays,
    Until: 01:16,0.000,
    Until: 01:18,1.000,
    Until: 02:03,0.048,
    Until: 02:08,1.000,
    Until: 03:21,0.000,
    Until: 03:23,1.000,
    Until: 04:08,0.048,
    Until: 04:13,1.000,
    Until: 04:14,0.000,
    Until: 04:16,1.000,
    Until: 05:01,0.048,
    Until: 05:06,1.000,
    Until: 06:07,0.000,
    Until: 06:09,1.000,
    Until: 06:54,0.048,
    Until: 06:59,1.000,
    Until: 13:02,0.000,
    Until: 13:04,1.000,
    Until: 13:49,0.048,
    Until: 13:54,1.000,
    Until: 24:00,0.000,
    Through: 4/23,
    For: AllDays,
    Until: 01:17,0.000,
    Until: 01:19,1.000,
    Until: 02:04,0.048,
    Until: 02:09,1.000,
    Until: 03:36,0.000,
    Until: 03:38,1.000,
    Until: 04:23,0.048,
    Until: 04:28,1.000,
    Until: 04:29,0.000,
    Until: 04:31,1.000,
    Until: 05:16,0.048,
    Until: 05:21,1.000,
    Until: 08:07,0.000,
    Until: 08:09,1.000,
    Until: 08:54,0.048,
    Until: 08:59,1.000,
    Until: 12:03,0.000,
    Until: 12:05,1.000,
    Until: 12:50,0.048,
    Until: 12:55,1.000,
    Until: 12:57,0.000,
    Until: 12:59,1.000,
    Until: 13:44,0.048,
    Until: 13:49,1.000,
    Until: 24:00,0.000,
    Through: 4/24,
    For: AllDays,
    Until: 01:25,0.000,
    Until: 01:27,1.000,
    Until: 02:12,0.048,
    Until: 02:17,1.000,
    Until: 02:18,0.000,
    Until: 02:20,1.000,
    Until: 03:05,0.048,
    Until: 03:10,1.000,
    Until: 03:37,0.000,
    Until: 03:39,1.000,
    Until: 04:24,0.048,
    Until: 04:29,1.000,
    Until: 07:02,0.000,
    Until: 07:04,1.000,
    Until: 07:49,0.048,
    Until: 07:54,1.000,
    Until: 12:38,0.000,
    Until: 12:40,1.000,
    Until: 13:25,0.048,
    Until: 13:30,1.000,
    Until: 18:13,0.000,
    Until: 18:15,1.000,
    Until: 19:00,0.048,
    Until: 19:05,1.000,
    Until: 24:00,0.000,
    Through: 4/25,
    For: AllDays,
    Until: 24:00,0.000,
    Through: 4/26,
    For: AllDays,
    Until: 24:00,0.000,
    Through: 4/27,
    For: AllDays,
    Until: 01:52,0.000,
    Until: 01:54,1.000,
    Until: 02:39,0.048,
    Until: 02:44,1.000,
    Until: 02:46,0.000,
    Until: 02:48,1.000,
    Until: 03:33,0.048,
    Until: 03:38,1.000,
    Until: 05:19,0.000,
    Until: 05:21,1.000,
    Until: 06:06,0.048,
    Until: 06:11,1.000,
    Until: 08:01,0.000,
    Until: 08:03,1.000,
    Until: 08:48,0.048,
    Until: 08:53,1.000,
    Until: 17:47,0.000,
    Until: 17:49,1.000,
    Until: 18:34,0.048,
    Until: 18:39,1.000,
    Until: 24:00,0.000,
    Through: 4/28,
    For: AllDays,
    Until: 01:48,0.000,
    Until: 01:50,1.000,
    Until: 02:35,0.048,
    Until: 02:40,1.000,
    Until: 02:41,0.000,
    Until: 02:43,1.000,
    Until: 03:28,0.048,
    Until: 03:33,1.000,
    Until: 03:38,0.000,
    Until: 03:40,1.000,
    Until: 04:25,0.048,
    Until: 04:30,1.000,
    Until: 04:52,0.000,
    Until: 04:54,1.000,
    Until: 05:39,0.048,
    Until: 05:44,1.000,
    Until: 11:10,0.000,
    Until: 11:12,1.000,
    Until: 11:57,0.048,
    Until: 12:02,1.000,
    Until: 13:30,0.000,
    Until: 13:32,1.000,
    Until: 14:17,0.048,
    Until: 14:22,1.000,
    Until: 24:00,0.000,
    Through: 4/29,
    For: AllDays,
    Until: 01:30,0.000,
    Until: 01:32,1.000,
    Until: 02:17,0.048,
    Until: 02:22,1.000,
    Until: 02:29,0.000,
    Until: 02:31,1.000,
    Until: 03:16,0.048,
    Until: 03:21,1.000,
    Until: 11:34,0.000,
    Until: 11:36,1.000,
    Until: 12:21,0.048,
    Until: 12:26,1.000,
    Until: 24:00,0.000,
    Through: 4/30,
    For: AllDays,
    Until: 01:46,0.000,
    Until: 01:48,1.000,
    Until: 02:33,0.048,
    Until: 02:38,1.000,
    Until: 02:54,0.000,
    Until: 02:56,1.000,
    Until: 03:41,0.048,
    Until: 03:46,1.000,
    Until: 03:53,0.000,
    Until: 03:55,1.000,
    Until: 04:40,0.048,
    Until: 04:45,1.000,
    Until: 12:14,0.000,
    Until: 12:16,1.000,
    Until: 13:01,0.048,
    Until: 13:06,1.000,
    Until: 13:12,0.000,
    Until: 13:14,1.000,
    Until: 13:59,0.048,
    Until: 14:04,1.000,
    Until: 19:01,0.000,
    Until: 19:03,1.000,
    Until: 19:48,0.048,
    Until: 19:53,1.000,
    Until: 24:00,0.000,
    Through: 5/1,
    For: AllDays,
    Until: 02:15,0.000,
    Until: 02:17,1.000,
    Until: 03:02,0.048,
    Until: 03:07,1.000,
    Until: 03:33,0.000,
    Until: 03:35,1.000,
    Until: 04:20,0.048,
    Until: 04:25,1.000,
    Until: 09:08,0.000,
    Until: 09:10,1.000,
    Until: 09:55,0.048,
    Until: 10:00,1.000,
    Until: 11:50,0.000,
    Until: 11:52,1.000,
    Until: 12:37,0.048,
    Until: 12:42,1.000,
    Until: 24:00,0.000,
    Through: 5/2,
    For: AllDays,
    Until: 24:00,0.000,
    Through: 5/3,
    For: AllDays,
    Until: 24:00,0.000,
    Through: 5/4,
    For: AllDays,
    Until: 02:06,0.000,
    Until: 02:08,1.000,
    Until: 02:53,0.048,
    Until: 02:58,1.000,
    Until: 02:59,0.000,
    Until: 03:01,1.000,
    Until: 03:46,0.048,
    Until: 03:51,1.000,
    Until: 08:52,0.000,
    Until: 08:54,1.000,
    Until: 09:39,0.048,
    Until: 09:44,1.000,
    Until: 12:00,0.000,
    Until: 12:02,1.000,
    Until: 12:47,0.048,
    Until: 12:52,1.000,
    Until: 24:00,0.000,
    Through: 5/5,
    For: AllDays,
    Until: 02:03,0.000,
    Until: 02:05,1.000,
    Until: 02:50,0.048,
    Until: 02:55,1.000,
    Until: 03:16,0.000,
    Until: 03:18,1.000,
    Until: 04:03,0.048,
    Until: 04:08,1.000,
    Until: 07:33,0.000,
    Until: 07:35,1.000,
    Until: 08:20,0.048,
    Until: 08:25,1.000,
    Until: 11:21,0.000,
    Until: 11:23,1.000,
    Until: 12:08,0.048,
    Until: 12:13,1.000,
    Until: 13:14,0.000,
    Until: 13:16,1.000,
    Until: 14:01,0.048,
    Until: 14:06,1.000,
    Until: 17:29,0.000,
    Until: 17:31,1.000,
    Until: 18:16,0.048,
    Until: 18:21,1.000,
    Until: 24:00,0.000,
    Through: 5/6,
    For: AllDays,
    Until: 00:38,0.000,
    Until: 00:40,1.000,
    Until: 01:25,0.048,
    Until: 01:30,1.000,
    Until: 02:13,0.000,
    Until: 02:15,1.000,
    Until: 03:00,0.048,
    Until: 03:05,1.000,
    Until: 05:19,0.000,
    Until: 05:21,1.000,
    Until: 06:06,0.048,
    Until: 06:11,1.000,
    Until: 12:03,0.000,
    Until: 12:05,1.000,
    Until: 12:50,0.048,
    Until: 12:55,1.000,
    Until: 17:53,0.000,
    Until: 17:55,1.000,
    Until: 18:40,0.048,
    Until: 18:45,1.000,
    Until: 24:00,0.000,
    Through: 5/7,
    For: AllDays,
    Until: 01:48,0.000,
    Until: 01:50,1.000,
    Until: 02:35,0.048,
    Until: 02:40,1.000,
    Until: 02:46,0.000,
    Until: 02:48,1.000,
    Until: 03:33,0.048,
    Until: 03:38,1.000,
    Until: 03:50,0.000,
    Until: 03:52,1.000,
    Until: 04:37,0.048,
    Until: 04:42,1.000,
    Until: 07:28,0.000,
    Until: 07:30,1.000,
    Until: 08:15,0.048,
    Until: 08:20,1.000,
    Until: 09:05,0.000,
    Until: 09:07,1.000,
    Until: 09:52,0.048,
    Until: 09:57,1.000,
    Until: 11:04,0.000,
    Until: 11:06,1.000,
    Until: 11:51,0.048,
    Until: 11:56,1.000,
    Until: 12:27,0.000,
    Until: 12:29,1.000,
    Until: 13:14,0.048,
    Until: 13:19,1.000,
    Until: 13:53,0.000,
    Until: 13:55,1.000,
    Until: 14:40,0.048,
    Until: 14:45,1.000,
    Until: 18:14,0.000,
    Until: 18:16,1.000,
    Until: 19:01,0.048,
    Until: 19:06,1.000,
    Until: 24:00,0.000,
    Through: 5/8,
    For: AllDays,
    Until: 02:30,0.000,
    Until: 02:32,1.000,
    Until: 03:17,0.048,
    Until: 03:22,1.000,
    Until: 03:34,0.000,
    Until: 03:36,1.000,
    Until: 04:21,0.048,
    Until: 04:26,1.000,
    Until: 07:07,0.000,
    Until: 07:09,1.000,
    Until: 07:54,0.048,
    Until: 07:59,1.000,
    Until: 11:27,0.000,
    Until: 11:29,1.000,
    Until: 12:14,0.048,
    Until: 12:19,1.000,
    Until: 18:13,0.000,
    Until: 18:15,1.000,
    Until: 19:00,0.048,
    Until: 19:05,1.000,
    Until: 24:00,0.000,
    Through: 5/9,
    For: AllDays,
    Until: 24:00,0.000,
    Through: 5/10,
    For: AllDays,
    Until: 24:00,0.000,
    Through: 5/11,
    For: AllDays,
    Until: 01:22,0.000,
    Until: 01:24,1.000,
    Until: 02:09,0.048,
    Until: 02:14,1.000,
    Until: 02:27,0.000,
    Until: 02:29,1.000,
    Until: 03:14,0.048,
    Until: 03:19,1.000,
    Until: 03:20,0.000,
    Until: 03:22,1.000,
    Until: 04:07,0.048,
    Until: 04:12,1.000,
    Until: 11:04,0.000,
    Until: 11:06,1.000,
    Until: 11:51,0.048,
    Until: 11:56,1.000,
    Until: 24:00,0.000,
    Through: 5/12,
    For: AllDays,
    Until: 01:02,0.000,
    Until: 01:04,1.000,
    Until: 01:49,0.048,
    Until: 01:54,1.000,
    Until: 03:02,0.000,
    Until: 03:04,1.000,
    Until: 03:49,0.048,
    Until: 03:54,1.000,
    Until: 04:22,0.000,
    Until: 04:24,1.000,
    Until: 05:09,0.048,
    Until: 05:14,1.000,
    Until: 07:08,0.000,
    Until: 07:10,1.000,
    Until: 07:55,0.048,
    Until: 08:00,1.000,
    Until: 12:16,0.000,
    Until: 12:18,1.000,
    Until: 13:03,0.048,
    Until: 13:08,1.000,
    Until: 14:10,0.000,
    Until: 14:12,1.000,
    Until: 14:57,0.048,
    Until: 15:02,1.000,
    Until: 24:00,0.000,
    Through: 5/13,
    For: AllDays,
    Until: 00:41,0.000,
    Until: 00:43,1.000,
    Until: 01:28,0.048,
    Until: 01:33,1.000,
    Until: 01:54,0.000,
    Until: 01:56,1.000,
    Until: 02:41,0.048,
    Until: 02:46,1.000,
    Until: 03:40,0.000,
    Until: 03:42,1.000,
    Until: 04:27,0.048,
    Until: 04:32,1.000,
    Until: 06:08,0.000,
    Until: 06:10,1.000,
    Until: 06:55,0.048,
    Until: 07:00,1.000,
    Until: 12:16,0.000,
    Until: 12:18,1.000,
    Until: 13:03,0.048,
    Until: 13:08,1.000,
    Until: 24:00,0.000,
    Through: 5/14,
    For: AllDays,
    Until: 01:01,0.000,
    Until: 01:03,1.000,
    Until: 01:48,0.048,
    Until: 01:53,1.000,
    Until: 01:56,0.000,
    Until: 01:58,1.000,
    Until: 02:43,0.048,
    Until: 02:48,1.000,
    Until: 03:47,0.000,
    Until: 03:49,1.000,
    Until: 04:34,0.048,
    Until: 04:39,1.000,
    Until: 08:01,0.000,
    Until: 08:03,1.000,
    Until: 08:48,0.048,
    Until: 08:53,1.000,
    Until: 09:10,0.000,
    Until: 09:12,1.000,
    Until: 09:57,0.048,
    Until: 10:02,1.000,
    Until: 10:47,0.000,
    Until: 10:49,1.000,
    Until: 11:34,0.048,
    Until: 11:39,1.000,
    Until: 13:07,0.000,
    Until: 13:09,1.000,
    Until: 13:54,0.048,
    Until: 13:59,1.000,
    Until: 24:00,0.000,
    Through: 5/15,
    For: AllDays,
    Until: 02:25,0.000,
    Until: 02:27,1.000,
    Until: 03:12,0.048,
    Until: 03:17,1.000,
    Until: 03:18,0.000,
    Until: 03:20,1.000,
    Until: 04:05,0.048,
    Until: 04:10,1.000,
    Until: 11:59,0.000,
    Until: 12:01,1.000,
    Until: 12:46,0.048,
    Until: 12:51,1.000,
    Until: 13:03,0.000,
    Until: 13:05,1.000,
    Until: 13:50,0.048,
    Until: 13:55,1.000,
    Until: 24:00,0.000,
    Through: 5/16,
    For: AllDays,
    Until: 24:00,0.000,
    Through: 5/17,
    For: AllDays,
    Until: 24:00,0.000,
    Through: 5/18,
    For: AllDays,
    Until: 01:36,0.000,
    Until: 01:38,1.000,
    Until: 02:23,0.048,
    Until: 02:28,1.000,
    Until: 04:22,0.000,
    Until: 04:24,1.000,
    Until: 05:09,0.048,
    Until: 05:14,1.000,
    Until: 11:06,0.000,
    Until: 11:08,1.000,
    Until: 11:53,0.048,
    Until: 11:58,1.000,
    Until: 13:35,0.000,
    Until: 13:37,1.000,
    Until: 14:22,0.048,
    Until: 14:27,1.000,
    Until: 24:00,0.000,
    Through: 5/19,
    For: AllDays,
    Until: 02:55,0.000,
    Until: 02:57,1.000,
    Until: 03:42,0.048,
    Until: 03:47,1.000,
    Until: 03:48,0.000,
    Until: 03:50,1.000,
    Until: 04:35,0.048,
    Until: 04:40,1.000,
    Until: 11:46,0.000,
    Until: 11:48,1.000,
    Until: 12:33,0.048,
    Until: 12:38,1.000,
    Until: 13:01,0.000,
    Until: 13:03,1.000,
    Until: 13:48,0.048,
    Until: 13:53,1.000,
    Until: 24:00,0.000,
    Through: 5/20,
    For: AllDays,
    Until: 01:38,0.000,
    Until: 01:40,1.000,
    Until: 02:25,0.048,
    Until: 02:30,1.000,
    Until: 03:06,0.000,
    Until: 03:08,1.000,
    Until: 03:53,0.048,
    Until: 03:58,1.000,
    Until: 04:07,0.000,
    Until: 04:09,1.000,
    Until: 04:54,0.048,
    Until: 04:59,1.000,
    Until: 12:11,0.000,
    Until: 12:13,1.000,
    Until: 12:58,0.048,
    Until: 13:03,1.000,
    Until: 14:11,0.000,
    Until: 14:13,1.000,
    Until: 14:58,0.048,
    Until: 15:03,1.000,
    Until: 24:00,0.000,
    Through: 5/21,
    For: AllDays,
    Until: 01:38,0.000,
    Until: 01:40,1.000,
    Until: 02:25,0.048,
    Until: 02:30,1.000,
    Until: 02:51,0.000,
    Until: 02:53,1.000,
    Until: 03:38,0.048,
    Until: 03:43,1.000,
    Until: 04:25,0.000,
    Until: 04:27,1.000,
    Until: 05:12,0.048,
    Until: 05:17,1.000,
    Until: 07:17,0.000,
    Until: 07:19,1.000,
    Until: 08:04,0.048,
    Until: 08:09,1.000,
    Until: 12:37,0.000,
    Until: 12:39,1.000,
    Until: 13:24,0.048,
    Until: 13:29,1.000,
    Until: 24:00,0.000,
    Through: 5/22,
    For: AllDays,
    Until: 02:58,0.000,
    Until: 03:00,1.000,
    Until: 03:45,0.048,
    Until: 03:50,1.000,
    Until: 03:51,0.000,
    Until: 03:53,1.000,
    Until: 04:38,0.048,
    Until: 04:43,1.000,
    Until: 08:22,0.000,
    Until: 08:24,1.000,
    Until: 09:09,0.048,
    Until: 09:14,1.000,
    Until: 12:02,0.000,
    Until: 12:04,1.000,
    Until: 12:49,0.048,
    Until: 12:54,1.000,
    Until: 12:56,0.000,
    Until: 12:58,1.000,
    Until: 13:43,0.048,
    Until: 13:48,1.000,
    Until: 24:00,0.000,
    Through: 5/23,
    For: AllDays,
    Until: 24:00,0.000,
    Through: 5/24,
    For: AllDays,
    Until: 24:00,0.000,
    Through: 5/25,
    For: AllDays,
    Until: 01:31,0.000,
    Until: 01:33,1.000,
    Until: 02:18,0.048,
    Until: 02:23,1.000,
    Until: 02:57,0.000,
    Until: 02:59,1.000,
    Until: 03:44,0.048,
    Until: 03:49,1.000,
    Until: 04:14,0.000,
    Until: 04:16,1.000,
    Until: 05:01,0.048,
    Until: 05:06,1.000,
    Until: 12:15,0.000,
    Until: 12:17,1.000,
    Until: 13:02,0.048,
    Until: 13:07,1.000,
    Until: 13:27,0.000,
    Until: 13:29,1.000,
    Until: 14:14,0.048,
    Until: 14:19,1.000,
    Until: 24:00,0.000,
    Through: 5/26,
    For: AllDays,
    Until: 01:48,0.000,
    Until: 01:50,1.000,
    Until: 02:35,0.048,
    Until: 02:40,1.000,
    Until: 02:41,0.000,
    Until: 02:43,1.000,
    Until: 03:28,0.048,
    Until: 03:33,1.000,
    Until: 05:40,0.000,
    Until: 05:42,1.000,
    Until: 06:27,0.048,
    Until: 06:32,1.000,
    Until: 12:00,0.000,
    Until: 12:02,1.000,
    Until: 12:47,0.048,
    Until: 12:52,1.000,
    Until: 12:57,0.000,
    Until: 12:59,1.000,
    Until: 13:44,0.048,
    Until: 13:49,1.000,
    Until: 16:05,0.000,
    Until: 16:07,1.000,
    Until: 16:52,0.048,
    Until: 16:57,1.000,
    Until: 24:00,0.000,
    Through: 5/27,
    For: AllDays,
    Until: 01:57,0.000,
    Until: 01:59,1.000,
    Until: 02:44,0.048,
    Until: 02:49,1.000,
    Until: 02:50,0.000,
    Until: 02:52,1.000,
    Until: 03:37,0.048,
    Until: 03:42,1.000,
    Until: 11:44,0.000,
    Until: 11:46,1.000,
    Until: 12:31,0.048,
    Until: 12:36,1.000,
    Until: 13:00,0.000,
    Until: 13:02,1.000,
    Until: 13:47,0.048,
    Until: 13:52,1.000,
    Until: 16:57,0.000,
    Until: 16:59,1.000,
    Until: 17:44,0.048,
    Until: 17:49,1.000,
    Until: 24:00,0.000,
    Through: 5/28,
    For: AllDays,
    Until: 03:00,0.000,
    Until: 03:02,1.000,
    Until: 03:47,0.048,
    Until: 03:52,1.000,
    Until: 03:53,0.000,
    Until: 03:55,1.000,
    Until: 04:40,0.048,
    Until: 04:45,1.000,
    Until: 05:11,0.000,
    Until: 05:13,1.000,
    Until: 05:58,0.048,
    Until: 06:03,1.000,
    Until: 12:08,0.000,
    Until: 12:10,1.000,
    Until: 12:55,0.048,
    Until: 13:00,1.000,
    Until: 24:00,0.000,
    Through: 5/29,
    For: AllDays,
    Until: 01:06,0.000,
    Until: 01:08,1.000,
    Until: 01:53,0.048,
    Until: 01:58,1.000,
    Until: 03:40,0.000,
    Until: 03:42,1.000,
    Until: 04:27,0.048,
    Until: 04:32,1.000,
    Until: 04:35,0.000,
    Until: 04:37,1.000,
    Until: 05:22,0.048,
    Until: 05:27,1.000,
    Until: 06:45,0.000,
    Until: 06:47,1.000,
    Until: 07:32,0.048,
    Until: 07:37,1.000,
    Until: 11:39,0.000,
    Until: 11:41,1.000,
    Until: 12:26,0.048,
    Until: 12:31,1.000,
    Until: 24:00,0.000,
    Through: 5/30,
    For: AllDays,
    Until: 24:00,0.000,
    Through: 5/31,
    For: AllDays,
    Until: 24:00,0.000,
    Through: 6/1,
    For: AllDays,
    Until: 01:30,0.000,
    Until: 01:32,1.000,
    Until: 02:17,0.048,
    Until: 02:22,1.000,
    Until: 06:17,0.000,
    Until: 06:19,1.000,
    Until: 07:04,0.048,
    Until: 07:09,1.000,
    Until: 07:56,0.000,
    Until: 07:58,1.000,
    Until: 08:43,0.048,
    Until: 08:48,1.000,
    Until: 11:22,0.000,
    Until: 11:24,1.000,
    Until: 12:09,0.048,
    Until: 12:14,1.000,
    Until: 15:39,0.000,
    Until: 15:41,1.000,
    Until: 16:26,0.048,
    Until: 16:31,1.000,
    Until: 24:00,0.000,
    Through: 6/2,
    For: AllDays,
    Until: 01:40,0.000,
    Until: 01:42,1.000,
    Until: 02:27,0.048,
    Until: 02:32,1.000,
    Until: 03:35,0.000,
    Until: 03:37,1.000,
    Until: 04:22,0.048,
    Until: 04:27,1.000,
    Until: 11:46,0.000,
    Until: 11:48,1.000,
    Until: 12:33,0.048,
    Until: 12:38,1.000,
    Until: 13:02,0.000,
    Until: 13:04,1.000,
    Until: 13:49,0.048,
    Until: 13:54,1.000,
    Until: 18:04,0.000,
    Until: 18:06,1.000,
    Until: 18:51,0.048,
    Until: 18:56,1.000,
    Until: 24:00,0.000,
    Through: 6/3,
    For: AllDays,
    Until: 01:34,0.000,
    Until: 01:36,1.000,
    Until: 02:21,0.048,
    Until: 02:26,1.000,
    Until: 08:22,0.000,
    Until: 08:24,1.000,
    Until: 09:09,0.048,
    Until: 09:14,1.000,
    Until: 11:49,0.000,
    Until: 11:51,1.000,
    Until: 12:36,0.048,
    Until: 12:41,1.000,
    Until: 24:00,0.000,
    Through: 6/4,
    For: AllDays,
    Until: 03:00,0.000,
    Until: 03:02,1.000,
    Until: 03:47,0.048,
    Until: 03:52,1.000,
    Until: 07:05,0.000,
    Until: 07:07,1.000,
    Until: 07:52,0.048,
    Until: 07:57,1.000,
    Until: 11:51,0.000,
    Until: 11:53,1.000,
    Until: 12:38,0.048,
    Until: 12:43,1.000,
    Until: 13:38,0.000,
    Until: 13:40,1.000,
    Until: 14:25,0.048,
    Until: 14:30,1.000,
    Until: 17:46,0.000,
    Until: 17:48,1.000,
    Until: 18:33,0.048,
    Until: 18:38,1.000,
    Until: 24:00,0.000,
    Through: 6/5,
    For: AllDays,
    Until: 01:31,0.000,
    Until: 01:33,1.000,
    Until: 02:18,0.048,
    Until: 02:23,1.000,
    Until: 02:27,0.000,
    Until: 02:29,1.000,
    Until: 03:14,0.048,
    Until: 03:19,1.000,
    Until: 08:19,0.000,
    Until: 08:21,1.000,
    Until: 09:06,0.048,
    Until: 09:11,1.000,
    Until: 11:20,0.000,
    Until: 11:22,1.000,
    Until: 12:07,0.048,
    Until: 12:12,1.000,
    Until: 24:00,0.000,
    Through: 6/6,
    For: AllDays,
    Until: 24:00,0.000,
    Through: 6/7,
    For: AllDays,
    Until: 24:00,0.000,
    Through: 6/8,
    For: AllDays,
    Until: 01:37,0.000,
    Until: 01:39,1.000,
    Until: 02:24,0.048,
    Until: 02:29,1.000,
    Until: 03:42,0.000,
    Until: 03:44,1.000,
    Until: 04:29,0.048,
    Until: 04:34,1.000,
    Until: 11:10,0.000,
    Until: 11:12,1.000,
    Until: 11:57,0.048,
    Until: 12:02,1.000,
    Until: 13:37,0.000,
    Until: 13:39,1.000,
    Until: 14:24,0.048,
    Until: 14:29,1.000,
    Until: 18:07,0.000,
    Until: 18:09,1.000,
    Until: 18:54,0.048,
    Until: 18:59,1.000,
    Until: 24:00,0.000,
    Through: 6/9,
    For: AllDays,
    Until: 01:55,0.000,
    Until: 01:57,1.000,
    Until: 02:42,0.048,
    Until: 02:47,1.000,
    Until: 03:23,0.000,
    Until: 03:25,1.000,
    Until: 04:10,0.048,
    Until: 04:15,1.000,
    Until: 08:16,0.000,
    Until: 08:18,1.000,
    Until: 09:03,0.048,
    Until: 09:08,1.000,
    Until: 11:58,0.000,
    Until: 12:00,1.000,
    Until: 12:45,0.048,
    Until: 12:50,1.000,
    Until: 12:53,0.000,
    Until: 12:55,1.000,
    Until: 13:40,0.048,
    Until: 13:45,1.000,
    Until: 24:00,0.000,
    Through: 6/10,
    For: AllDays,
    Until: 01:09,0.000,
    Until: 01:11,1.000,
    Until: 01:56,0.048,
    Until: 02:01,1.000,
    Until: 03:36,0.000,
    Until: 03:38,1.000,
    Until: 04:23,0.048,
    Until: 04:28,1.000,
    Until: 07:22,0.000,
    Until: 07:24,1.000,
    Until: 08:09,0.048,
    Until: 08:14,1.000,
    Until: 13:05,0.000,
    Until: 13:07,1.000,
    Until: 13:52,0.048,
    Until: 13:57,1.000,
    Until: 24:00,0.000,
    Through: 6/11,
    For: AllDays,
    Until: 01:28,0.000,
    Until: 01:30,1.000,
    Until: 02:15,0.048,
    Until: 02:20,1.000,
    Until: 02:38,0.000,
    Until: 02:40,1.000,
    Until: 03:25,0.048,
    Until: 03:30,1.000,
    Until: 03:31,0.000,
    Until: 03:33,1.000,
    Until: 04:18,0.048,
    Until: 04:23,1.000,
    Until: 08:04,0.000,
    Until: 08:06,1.000,
    Until: 08:51,0.048,
    Until: 08:56,1.000,
    Until: 11:41,0.000,
    Until: 11:43,1.000,
    Until: 12:28,0.048,
    Until: 12:33,1.000,
    Until: 12:35,0.000,
    Until: 12:37,1.000,
    Until: 13:22,0.048,
    Until: 13:27,1.000,
    Until: 18:52,0.000,
    Until: 18:54,1.000,
    Until: 19:39,0.048,
    Until: 19:44,1.000,
    Until: 24:00,0.000,
    Through: 6/12,
    For: AllDays,
    Until: 02:11,0.000,
    Until: 02:13,1.000,
    Until: 02:58,0.048,
    Until: 03:03,1.000,
    Until: 03:29,0.000,
    Until: 03:31,1.000,
    Until: 04:16,0.048,
    Until: 04:21,1.000,
    Until: 08:39,0.000,
    Until: 08:41,1.000,
    Until: 09:26,0.048,
    Until: 09:31,1.000,
    Until: 11:38,0.000,
    Until: 11:40,1.000,
    Until: 12:25,0.048,
    Until: 12:30,1.000,
    Until: 13:01,0.000,
    Until: 13:03,1.000,
    Until: 13:48,0.048,
    Until: 13:53,1.000,
    Until: 24:00,0.000,
    Through: 6/13,
    For: AllDays,
    Until: 24:00,0.000,
    Through: 6/14,
    For: AllDays,
    Until: 24:00,0.000,
    Through: 6/15,
    For: AllDays,
    Until: 00:29,0.000,
    Until: 00:31,1.000,
    Until: 01:16,0.048,
    Until: 01:21,1.000,
    Until: 03:14,0.000,
    Until: 03:16,1.000,
    Until: 04:01,0.048,
    Until: 04:06,1.000,
    Until: 10:09,0.000,
    Until: 10:11,1.000,
    Until: 10:56,0.048,
    Until: 11:01,1.000,
    Until: 15:08,0.000,
    Until: 15:10,1.000,
    Until: 15:55,0.048,
    Until: 16:00,1.000,
    Until: 24:00,0.000,
    Through: 6/16,
    For: AllDays,
    Until: 01:35,0.000,
    Until: 01:37,1.000,
    Until: 02:22,0.048,
    Until: 02:27,1.000,
    Until: 03:20,0.000,
    Until: 03:22,1.000,
    Until: 04:07,0.048,
    Until: 04:12,1.000,
    Until: 04:13,0.000,
    Until: 04:15,1.000,
    Until: 05:00,0.048,
    Until: 05:05,1.000,
    Until: 08:15,0.000,
    Until: 08:17,1.000,
    Until: 09:02,0.048,
    Until: 09:07,1.000,
    Until: 13:51,0.000,
    Until: 13:53,1.000,
    Until: 14:38,0.048,
    Until: 14:43,1.000,
    Until: 17:37,0.000,
    Until: 17:39,1.000,
    Until: 18:24,0.048,
    Until: 18:29,1.000,
    Until: 24:00,0.000,
    Through: 6/17,
    For: AllDays,
    Until: 02:29,0.000,
    Until: 02:31,1.000,
    Until: 03:16,0.048,
    Until: 03:21,1.000,
    Until: 03:22,0.000,
    Until: 03:24,1.000,
    Until: 04:09,0.048,
    Until: 04:14,1.000,
    Until: 08:40,0.000,
    Until: 08:42,1.000,
    Until: 09:27,0.048,
    Until: 09:32,1.000,
    Until: 10:51,0.000,
    Until: 10:53,1.000,
    Until: 11:38,0.048,
    Until: 11:43,1.000,
    Until: 12:24,0.000,
    Until: 12:26,1.000,
    Until: 13:11,0.048,
    Until: 13:16,1.000,
    Until: 18:45,0.000,
    Until: 18:47,1.000,
    Until: 19:32,0.048,
    Until: 19:37,1.000,
    Until: 24:00,0.000,
    Through: 6/18,
    For: AllDays,
    Until: 00:59,0.000,
    Until: 01:01,1.000,
    Until: 01:46,0.048,
    Until: 01:51,1.000,
    Until: 02:01,0.000,
    Until: 02:03,1.000,
    Until: 02:48,0.048,
    Until: 02:53,1.000,
    Until: 10:29,0.000,
    Until: 10:31,1.000,
    Until: 11:16,0.048,
    Until: 11:21,1.000,
    Until: 14:07,0.000,
    Until: 14:09,1.000,
    Until: 14:54,0.048,
    Until: 14:59,1.000,
    Until: 24:00,0.000,
    Through: 6/19,
    For: AllDays,
    Until: 02:38,0.000,
    Until: 02:40,1.000,
    Until: 03:25,0.048,
    Until: 03:30,1.000,
    Until: 03:31,0.000,
    Until: 03:33,1.000,
    Until: 04:18,0.048,
    Until: 04:23,1.000,
    Until: 12:03,0.000,
    Until: 12:05,1.000,
    Until: 12:50,0.048,
    Until: 12:55,1.000,
    Until: 24:00,0.000,
    Through: 6/20,
    For: AllDays,
    Until: 24:00,0.000,
    Through: 6/21,
    For: AllDays,
    Until: 24:00,0.000,
    Through: 6/22,
    For: AllDays,
    Until: 02:00,0.000,
    Until: 02:02,1.000,
    Until: 02:47,0.048,
    Until: 02:52,1.000,
    Until: 03:41,0.000,
    Until: 03:43,1.000,
    Until: 04:28,0.048,
    Until: 04:33,1.000,
    Until: 06:44,0.000,
    Until: 06:46,1.000,
    Until: 07:31,0.048,
    Until: 07:36,1.000,
    Until: 12:45,0.000,
    Until: 12:47,1.000,
    Until: 13:32,0.048,
    Until: 13:37,1.000,
    Until: 24:00,0.000,
    Through: 6/23,
    For: AllDays,
    Until: 01:52,0.000,
    Until: 01:54,1.000,
    Until: 02:39,0.048,
    Until: 02:44,1.000,
    Until: 02:54,0.000,
    Until: 02:56,1.000,
    Until: 03:41,0.048,
    Until: 03:46,1.000,
    Until: 07:54,0.000,
    Until: 07:56,1.000,
    Until: 08:41,0.048,
    Until: 08:46,1.000,
    Until: 10:30,0.000,
    Until: 10:32,1.000,
    Until: 11:17,0.048,
    Until: 11:22,1.000,
    Until: 12:44,0.000,
    Until: 12:46,1.000,
    Until: 13:31,0.048,
    Until: 13:36,1.000,
    Until: 24:00,0.000,
    Through: 6/24,
    For: AllDays,
    Until: 02:22,0.000,
    Until: 02:24,1.000,
    Until: 03:09,0.048,
    Until: 03:14,1.000,
    Until: 03:20,0.000,
    Until: 03:22,1.000,
    Until: 04:07,0.048,
    Until: 04:12,1.000,
    Until: 07:16,0.000,
    Until: 07:18,1.000,
    Until: 08:03,0.048,
    Until: 08:08,1.000,
    Until: 12:09,0.000,
    Until: 12:11,1.000,
    Until: 12:56,0.048,
    Until: 13:01,1.000,
    Until: 24:00,0.000,
    Through: 6/25,
    For: AllDays,
    Until: 02:30,0.000,
    Until: 02:32,1.000,
    Until: 03:17,0.048,
    Until: 03:22,1.000,
    Until: 03:23,0.000,
    Until: 03:25,1.000,
    Until: 04:10,0.048,
    Until: 04:15,1.000,
    Until: 11:02,0.000,
    Until: 11:04,1.000,
    Until: 11:49,0.048,
    Until: 11:54,1.000,
    Until: 24:00,0.000,
    Through: 6/26,
    For: AllDays,
    Until: 02:20,0.000,
    Until: 02:22,1.000,
    Until: 03:07,0.048,
    Until: 03:12,1.000,
    Until: 03:25,0.000,
    Until: 03:27,1.000,
    Until: 04:12,0.048,
    Until: 04:17,1.000,
    Until: 08:56,0.000,
    Until: 08:58,1.000,
    Until: 09:43,0.048,
    Until: 09:48,1.000,
    Until: 11:35,0.000,
    Until: 11:37,1.000,
    Until: 12:22,0.048,
    Until: 12:27,1.000,
    Until: 12:36,0.000,
    Until: 12:38,1.000,
    Until: 13:23,0.048,
    Until: 13:28,1.000,
    Until: 24:00,0.000,
    Through: 6/27,
    For: AllDays,
    Until: 24:00,0.000,
    Through: 6/28,
    For: AllDays,
    Until: 24:00,0.000,
    Through: 6/29,
    For: AllDays,
    Until: 01:39,0.000,
    Until: 01:41,1.000,
    Until: 02:26,0.048,
    Until: 02:31,1.000,
    Until: 03:22,0.000,
    Until: 03:24,1.000,
    Until: 04:09,0.048,
    Until: 04:14,1.000,
    Until: 06:25,0.000,
    Until: 06:27,1.000,
    Until: 07:12,0.048,
    Until: 07:17,1.000,
    Until: 08:31,0.000,
    Until: 08:33,1.000,
    Until: 09:18,0.048,
    Until: 09:23,1.000,
    Until: 11:27,0.000,
    Until: 11:29,1.000,
    Until: 12:14,0.048,
    Until: 12:19,1.000,
    Until: 18:58,0.000,
    Until: 19:00,1.000,
    Until: 19:45,0.048,
    Until: 19:50,1.000,
    Until: 24:00,0.000,
    Through: 6/30,
    For: AllDays,
    Until: 01:32,0.000,
    Until: 01:34,1.000,
    Until: 02:19,0.048,
    Until: 02:24,1.000,
    Until: 03:00,0.000,
    Until: 03:02,1.000,
    Until: 03:47,0.048,
    Until: 03:52,1.000,
    Until: 04:05,0.000,
    Until: 04:07,1.000,
    Until: 04:52,0.048,
    Until: 04:57,1.000,
    Until: 08:27,0.000,
    Until: 08:29,1.000,
    Until: 09:14,0.048,
    Until: 09:19,1.000,
    Until: 14:03,0.000,
    Until: 14:05,1.000,
    Until: 14:50,0.048,
    Until: 14:55,1.000,
    Until: 18:21,0.000,
    Until: 18:23,1.000,
    Until: 19:08,0.048,
    Until: 19:13,1.000,
    Until: 24:00,0.000,
    Through: 7/1,
    For: AllDays,
    Until: 01:47,0.000,
    Until: 01:49,1.000,
    Until: 02:34,0.048,
    Until: 02:39,1.000,
    Until: 02:42,0.000,
    Until: 02:44,1.000,
    Until: 03:29,0.048,
    Until: 03:34,1.000,
    Until: 10:47,0.000,
    Until: 10:49,1.000,
    Until: 11:34,0.048,
    Until: 11:39,1.000,
    Until: 24:00,0.000,
    Through: 7/2,
    For: AllDays,
    Until: 00:27,0.000,
    Until: 00:29,1.000,
    Until: 01:14,0.048,
    Until: 01:19,1.000,
    Until: 02:44,0.000,
    Until: 02:46,1.000,
    Until: 03:31,0.048,
    Until: 03:36,1.000,
    Until: 24:00,0.000,
    Through: 7/3,
    For: AllDays,
    Until: 01:20,0.000,
    Until: 01:22,1.000,
    Until: 02:07,0.048,
    Until: 02:12,1.000,
    Until: 02:23,0.000,
    Until: 02:25,1.000,
    Until: 03:10,0.048,
    Until: 03:15,1.000,
    Until: 08:20,0.000,
    Until: 08:22,1.000,
    Until: 09:07,0.048,
    Until: 09:12,1.000,
    Until: 09:55,0.000,
    Until: 09:57,1.000,
    Until: 10:42,0.048,
    Until: 10:47,1.000,
    Until: 13:33,0.000,
    Until: 13:35,1.000,
    Until: 14:20,0.048,
    Until: 14:25,1.000,
    Until: 24:00,0.000,
    Through: 7/4,
    For: AllDays,
    Until: 24:00,0.000,
    Through: 7/5,
    For: AllDays,
    Until: 24:00,0.000,
    Through: 7/6,
    For: AllDays,
    Until: 02:52,0.000,
    Until: 02:54,1.000,
    Until: 03:39,0.048,
    Until: 03:44,1.000,
    Until: 07:17,0.000,
    Until: 07:19,1.000,
    Until: 08:04,0.048,
    Until: 08:09,1.000,
    Until: 11:41,0.000,
    Until: 11:43,1.000,
    Until: 12:28,0.048,
    Until: 12:33,1.000,
    Until: 17:24,0.000,
    Until: 17:26,1.000,
    Until: 18:11,0.048,
    Until: 18:16,1.000,
    Until: 24:00,0.000,
    Through: 7/7,
    For: AllDays,
    Until: 02:29,0.000,
    Until: 02:31,1.000,
    Until: 03:16,0.048,
    Until: 03:21,1.000,
    Until: 03:22,0.000,
    Until: 03:24,1.000,
    Until: 04:09,0.048,
    Until: 04:14,1.000,
    Until: 07:13,0.000,
    Until: 07:15,1.000,
    Until: 08:00,0.048,
    Until: 08:05,1.000,
    Until: 13:13,0.000,
    Until: 13:15,1.000,
    Until: 14:00,0.048,
    Until: 14:05,1.000,
    Until: 18:28,0.000,
    Until: 18:30,1.000,
    Until: 19:15,0.048,
    Until: 19:20,1.000,
    Until: 24:00,0.000,
    Through: 7/8,
    For: AllDays,
    Until: 00:25,0.000,
    Until: 00:27,1.000,
    Until: 01:12,0.048,
    Until: 01:17,1.000,
    Until: 03:24,0.000,
    Until: 03:26,1.000,
    Until: 04:11,0.048,
    Until: 04:16,1.000,
    Until: 04:17,0.000,
    Until: 04:19,1.000,
    Until: 05:04,0.048,
    Until: 05:09,1.000,
    Until: 05:43,0.000,
    Until: 05:45,1.000,
    Until: 06:30,0.048,
    Until: 06:35,1.000,
    Until: 08:31,0.000,
    Until: 08:33,1.000,
    Until: 09:18,0.048,
    Until: 09:23,1.000,
    Until: 12:23,0.000,
    Until: 12:25,1.000,
    Until: 13:10,0.048,
    Until: 13:15,1.000,
    Until: 17:43,0.000,
    Until: 17:45,1.000,
    Until: 18:30,0.048,
    Until: 18:35,1.000,
    Until: 24:00,0.000,
    Through: 7/9,
    For: AllDays,
    Until: 01:57,0.000,
    Until: 01:59,1.000,
    Until: 02:44,0.048,
    Until: 02:49,1.000,
    Until: 03:17,0.000,
    Until: 03:19,1.000,
    Until: 04:04,0.048,
    Until: 04:09,1.000,
    Until: 04:19,0.000,
    Until: 04:21,1.000,
    Until: 05:06,0.048,
    Until: 05:11,1.000,
    Until: 06:56,0.000,
    Until: 06:58,1.000,
    Until: 07:43,0.048,
    Until: 07:48,1.000,
    Until: 12:03,0.000,
    Until: 12:05,1.000,
    Until: 12:50,0.048,
    Until: 12:55,1.000,
    Until: 13:45,0.000,
    Until: 13:47,1.000,
    Until: 14:32,0.048,
    Until: 14:37,1.000,
    Until: 24:00,0.000,
    Through: 7/10,
    For: AllDays,
    Until: 01:18,0.000,
    Until: 01:20,1.000,
    Until: 02:05,0.048,
    Until: 02:10,1.000,
    Until: 02:56,0.000,
    Until: 02:58,1.000,
    Until: 03:43,0.048,
    Until: 03:48,1.000,
    Until: 04:03,0.000,
    Until: 04:05,1.000,
    Until: 04:50,0.048,
    Until: 04:55,1.000,
    Until: 06:50,0.000,
    Until: 06:52,1.000,
    Until: 07:37,0.048,
    Until: 07:42,1.000,
    Until: 11:37,0.000,
    Until: 11:39,1.000,
    Until: 12:24,0.048,
    Until: 12:29,1.000,
    Until: 18:06,0.000,
    Until: 18:08,1.000,
    Until: 18:53,0.048,
    Until: 18:58,1.000,
    Until: 24:00,0.000,
    Through: 7/11,
    For: AllDays,
    Until: 24:00,0.000,
    Through: 7/12,
    For: AllDays,
    Until: 24:00,0.000,
    Through: 7/13,
    For: AllDays,
    Until: 02:23,0.000,
    Until: 02:25,1.000,
    Until: 03:10,0.048,
    Until: 03:15,1.000,
    Until: 03:41,0.000,
    Until: 03:43,1.000,
    Until: 04:28,0.048,
    Until: 04:33,1.000,
    Until: 10:18,0.000,
    Until: 10:20,1.000,
    Until: 11:05,0.048,
    Until: 11:10,1.000,
    Until: 17:02,0.000,
    Until: 17:04,1.000,
    Until: 17:49,0.048,
    Until: 17:54,1.000,
    Until: 24:00,0.000,
    Through: 7/14,
    For: AllDays,
    Until: 01:06,0.000,
    Until: 01:08,1.000,
    Until: 01:53,0.048,
    Until: 01:58,1.000,
    Until: 02:09,0.000,
    Until: 02:11,1.000,
    Until: 02:56,0.048,
    Until: 03:01,1.000,
    Until: 07:13,0.000,
    Until: 07:15,1.000,
    Until: 08:00,0.048,
    Until: 08:05,1.000,
    Until: 08:22,0.000,
    Until: 08:24,1.000,
    Until: 09:09,0.048,
    Until: 09:14,1.000,
    Until: 12:15,0.000,
    Until: 12:17,1.000,
    Until: 13:02,0.048,
    Until: 13:07,1.000,
    Until: 24:00,0.000,
    Through: 7/15,
    For: AllDays,
    Until: 01:51,0.000,
    Until: 01:53,1.000,
    Until: 02:38,0.048,
    Until: 02:43,1.000,
    Until: 03:24,0.000,
    Until: 03:26,1.000,
    Until: 04:11,0.048,
    Until: 04:16,1.000,
    Until: 07:46,0.000,
    Until: 07:48,1.000,
    Until: 08:33,0.048,
    Until: 08:38,1.000,
    Until: 08:52,0.000,
    Until: 08:54,1.000,
    Until: 09:39,0.048,
    Until: 09:44,1.000,
    Until: 10:16,0.000,
    Until: 10:18,1.000,
    Until: 11:03,0.048,
    Until: 11:08,1.000,
    Until: 24:00,0.000,
    Through: 7/16,
    For: AllDays,
    Until: 00:24,0.000,
    Until: 00:26,1.000,
    Until: 01:11,0.048,
    Until: 01:16,1.000,
    Until: 02:29,0.000,
    Until: 02:31,1.000,
    Until: 03:16,0.048,
    Until: 03:21,1.000,
    Until: 04:23,0.000,
    Until: 04:25,1.000,
    Until: 05:10,0.048,
    Until: 05:15,1.000,
    Until: 08:58,0.000,
    Until: 09:00,1.000,
    Until: 09:45,0.048,
    Until: 09:50,1.000,
    Until: 11:23,0.000,
    Until: 11:25,1.000,
    Until: 12:10,0.048,
    Until: 12:15,1.000,
    Until: 13:41,0.000,
    Until: 13:43,1.000,
    Until: 14:28,0.048,
    Until: 14:33,1.000,
    Until: 24:00,0.000,
    Through: 7/17,
    For: AllDays,
    Until: 01:45,0.000,
    Until: 01:47,1.000,
    Until: 02:32,0.048,
    Until: 02:37,1.000,
    Until: 02:38,0.000,
    Until: 02:40,1.000,
    Until: 03:25,0.048,
    Until: 03:30,1.000,
    Until: 03:45,0.000,
    Until: 03:47,1.000,
    Until: 04:32,0.048,
    Until: 04:37,1.000,
    Until: 07:27,0.000,
    Until: 07:29,1.000,
    Until: 08:14,0.048,
    Until: 08:19,1.000,
    Until: 11:49,0.000,
    Until: 11:51,1.000,
    Until: 12:36,0.048,
    Until: 12:41,1.000,
    Until: 12:43,0.000,
    Until: 12:45,1.000,
    Until: 13:30,0.048,
    Until: 13:35,1.000,
    Until: 24:00,0.000,
    Through: 7/18,
    For: AllDays,
    Until: 24:00,0.000,
    Through: 7/19,
    For: AllDays,
    Until: 24:00,0.000,
    Through: 7/20,
    For: AllDays,
    Until: 01:46,0.000,
    Until: 01:48,1.000,
    Until: 02:33,0.048,
    Until: 02:38,1.000,
    Until: 02:39,0.000,
    Until: 02:41,1.000,
    Until: 03:26,0.048,
    Until: 03:31,1.000,
    Until: 03:32,0.000,
    Until: 03:34,1.000,
    Until: 04:19,0.048,
    Until: 04:24,1.000,
    Until: 06:23,0.000,
    Until: 06:25,1.000,
    Until: 07:10,0.048,
    Until: 07:15,1.000,
    Until: 10:14,0.000,
    Until: 10:16,1.000,
    Until: 11:01,0.048,
    Until: 11:06,1.000,
    Until: 17:45,0.000,
    Until: 17:47,1.000,
    Until: 18:32,0.048,
    Until: 18:37,1.000,
    Until: 24:00,0.000,
    Through: 7/21,
    For: AllDays,
    Until: 02:53,0.000,
    Until: 02:55,1.000,
    Until: 03:40,0.048,
    Until: 03:45,1.000,
    Until: 03:46,0.000,
    Until: 03:48,1.000,
    Until: 04:33,0.048,
    Until: 04:38,1.000,
    Until: 07:25,0.000,
    Until: 07:27,1.000,
    Until: 08:12,0.048,
    Until: 08:17,1.000,
    Until: 13:40,0.000,
    Until: 13:42,1.000,
    Until: 14:27,0.048,
    Until: 14:32,1.000,
    Until: 24:00,0.000,
    Through: 7/22,
    For: AllDays,
    Until: 01:41,0.000,
    Until: 01:43,1.000,
    Until: 02:28,0.048,
    Until: 02:33,1.000,
    Until: 02:34,0.000,
    Until: 02:36,1.000,
    Until: 03:21,0.048,
    Until: 03:26,1.000,
    Until: 12:59,0.000,
    Until: 13:01,1.000,
    Until: 13:46,0.048,
    Until: 13:51,1.000,
    Until: 14:07,0.000,
    Until: 14:09,1.000,
    Until: 14:54,0.048,
    Until: 14:59,1.000,
    Until: 16:58,0.000,
    Until: 17:00,1.000,
    Until: 17:45,0.048,
    Until: 17:50,1.000,
    Until: 24:00,0.000,
    Through: 7/23,
    For: AllDays,
    Until: 02:39,0.000,
    Until: 02:41,1.000,
    Until: 03:26,0.048,
    Until: 03:31,1.000,
    Until: 03:32,0.000,
    Until: 03:34,1.000,
    Until: 04:19,0.048,
    Until: 04:24,1.000,
    Until: 06:44,0.000,
    Until: 06:46,1.000,
    Until: 07:31,0.048,
    Until: 07:36,1.000,
    Until: 08:52,0.000,
    Until: 08:54,1.000,
    Until: 09:39,0.048,
    Until: 09:44,1.000,
    Until: 10:37,0.000,
    Until: 10:39,1.000,
    Until: 11:24,0.048,
    Until: 11:29,1.000,
    Until: 12:39,0.000,
    Until: 12:41,1.000,
    Until: 13:26,0.048,
    Until: 13:31,1.000,
    Until: 24:00,0.000,
    Through: 7/24,
    For: AllDays,
    Until: 00:40,0.000,
    Until: 00:42,1.000,
    Until: 01:27,0.048,
    Until: 01:32,1.000,
    Until: 01:49,0.000,
    Until: 01:51,1.000,
    Until: 02:36,0.048,
    Until: 02:41,1.000,
    Until: 03:32,0.000,
    Until: 03:34,1.000,
    Until: 04:19,0.048,
    Until: 04:24,1.000,
    Until: 07:12,0.000,
    Until: 07:14,1.000,
    Until: 07:59,0.048,
    Until: 08:04,1.000,
    Until: 11:55,0.000,
    Until: 11:57,1.000,
    Until: 12:42,0.048,
    Until: 12:47,1.000,
    Until: 13:26,0.000,
    Until: 13:28,1.000,
    Until: 14:13,0.048,
    Until: 14:18,1.000,
    Until: 24:00,0.000,
    Through: 7/25,
    For: AllDays,
    Until: 24:00,0.000,
    Through: 7/26,
    For: AllDays,
    Until: 24:00,0.000,
    Through: 7/27,
    For: AllDays,
    Until: 02:05,0.000,
    Until: 02:07,1.000,
    Until: 02:52,0.048,
    Until: 02:57,1.000,
    Until: 02:58,0.000,
    Until: 03:00,1.000,
    Until: 03:45,0.048,
    Until: 03:50,1.000,
    Until: 07:05,0.000,
    Until: 07:07,1.000,
    Until: 07:52,0.048,
    Until: 07:57,1.000,
    Until: 10:52,0.000,
    Until: 10:54,1.000,
    Until: 11:39,0.048,
    Until: 11:44,1.000,
    Until: 13:04,0.000,
    Until: 13:06,1.000,
    Until: 13:51,0.048,
    Until: 13:56,1.000,
    Until: 13:57,0.000,
    Until: 13:59,1.000,
    Until: 14:44,0.048,
    Until: 14:49,1.000,
    Until: 24:00,0.000,
    Through: 7/28,
    For: AllDays,
    Until: 01:08,0.000,
    Until: 01:10,1.000,
    Until: 01:55,0.048,
    Until: 02:00,1.000,
    Until: 02:49,0.000,
    Until: 02:51,1.000,
    Until: 03:36,0.048,
    Until: 03:41,1.000,
    Until: 04:04,0.000,
    Until: 04:06,1.000,
    Until: 04:51,0.048,
    Until: 04:56,1.000,
    Until: 05:39,0.000,
    Until: 05:41,1.000,
    Until: 06:26,0.048,
    Until: 06:31,1.000,
    Until: 07:40,0.000,
    Until: 07:42,1.000,
    Until: 08:27,0.048,
    Until: 08:32,1.000,
    Until: 12:12,0.000,
    Until: 12:14,1.000,
    Until: 12:59,0.048,
    Until: 13:04,1.000,
    Until: 18:18,0.000,
    Until: 18:20,1.000,
    Until: 19:05,0.048,
    Until: 19:10,1.000,
    Until: 24:00,0.000,
    Through: 7/29,
    For: AllDays,
    Until: 01:28,0.000,
    Until: 01:30,1.000,
    Until: 02:15,0.048,
    Until: 02:20,1.000,
    Until: 02:50,0.000,
    Until: 02:52,1.000,
    Until: 03:37,0.048,
    Until: 03:42,1.000,
    Until: 04:43,0.000,
    Until: 04:45,1.000,
    Until: 05:30,0.048,
    Until: 05:35,1.000,
    Until: 07:18,0.000,
    Until: 07:20,1.000,
    Until: 08:05,0.048,
    Until: 08:10,1.000,
    Until: 10:35,0.000,
    Until: 10:37,1.000,
    Until: 11:22,0.048,
    Until: 11:27,1.000,
    Until: 13:40,0.000,
    Until: 13:42,1.000,
    Until: 14:27,0.048,
    Until: 14:32,1.000,
    Until: 16:21,0.000,
    Until: 16:23,1.000,
    Until: 17:08,0.048,
    Until: 17:13,1.000,
    Until: 24:00,0.000,
    Through: 7/30,
    For: AllDays,
    Until: 02:05,0.000,
    Until: 02:07,1.000,
    Until: 02:52,0.048,
    Until: 02:57,1.000,
    Until: 03:12,0.000,
    Until: 03:14,1.000,
    Until: 03:59,0.048,
    Until: 04:04,1.000,
    Until: 12:57,0.000,
    Until: 12:59,1.000,
    Until: 13:44,0.048,
    Until: 13:49,1.000,
    Until: 24:00,0.000,
    Through: 7/31,
    For: AllDays,
    Until: 01:53,0.000,
    Until: 01:55,1.000,
    Until: 02:40,0.048,
    Until: 02:45,1.000,
    Until: 02:46,0.000,
    Until: 02:48,1.000,
    Until: 03:33,0.048,
    Until: 03:38,1.000,
    Until: 11:48,0.000,
    Until: 11:50,1.000,
    Until: 12:35,0.048,
    Until: 12:40,1.000,
    Until: 24:00,0.000,
    Through: 8/1,
    For: AllDays,
    Until: 24:00,0.000,
    Through: 8/2,
    For: AllDays,
    Until: 24:00,0.000,
    Through: 8/3,
    For: AllDays,
    Until: 00:47,0.000,
    Until: 00:49,1.000,
    Until: 01:34,0.048,
    Until: 01:39,1.000,
    Until: 03:30,0.000,
    Until: 03:32,1.000,
    Until: 04:17,0.048,
    Until: 04:22,1.000,
    Until: 07:59,0.000,
    Until: 08:01,1.000,
    Until: 08:46,0.048,
    Until: 08:51,1.000,
    Until: 10:36,0.000,
    Until: 10:38,1.000,
    Until: 11:23,0.048,
    Until: 11:28,1.000,
    Until: 24:00,0.000,
    Through: 8/4,
    For: AllDays,
    Until: 02:35,0.000,
    Until: 02:37,1.000,
    Until: 03:22,0.048,
    Until: 03:27,1.000,
    Until: 03:28,0.000,
    Until: 03:30,1.000,
    Until: 04:15,0.048,
    Until: 04:20,1.000,
    Until: 08:10,0.000,
    Until: 08:12,1.000,
    Until: 08:57,0.048,
    Until: 09:02,1.000,
    Until: 10:13,0.000,
    Until: 10:15,1.000,
    Until: 11:00,0.048,
    Until: 11:05,1.000,
    Until: 18:09,0.000,
    Until: 18:11,1.000,
    Until: 18:56,0.048,
    Until: 19:01,1.000,
    Until: 24:00,0.000,
    Through: 8/5,
    For: AllDays,
    Until: 02:18,0.000,
    Until: 02:20,1.000,
    Until: 03:05,0.048,
    Until: 03:10,1.000,
    Until: 03:12,0.000,
    Until: 03:14,1.000,
    Until: 03:59,0.048,
    Until: 04:04,1.000,
    Until: 08:40,0.000,
    Until: 08:42,1.000,
    Until: 09:27,0.048,
    Until: 09:32,1.000,
    Until: 11:07,0.000,
    Until: 11:09,1.000,
    Until: 11:54,0.048,
    Until: 11:59,1.000,
    Until: 18:44,0.000,
    Until: 18:46,1.000,
    Until: 19:31,0.048,
    Until: 19:36,1.000,
    Until: 24:00,0.000,
    Through: 8/6,
    For: AllDays,
    Until: 00:38,0.000,
    Until: 00:40,1.000,
    Until: 01:25,0.048,
    Until: 01:30,1.000,
    Until: 03:17,0.000,
    Until: 03:19,1.000,
    Until: 04:04,0.048,
    Until: 04:09,1.000,
    Until: 12:04,0.000,
    Until: 12:06,1.000,
    Until: 12:51,0.048,
    Until: 12:56,1.000,
    Until: 12:59,0.000,
    Until: 13:01,1.000,
    Until: 13:46,0.048,
    Until: 13:51,1.000,
    Until: 24:00,0.000,
    Through: 8/7,
    For: AllDays,
    Until: 02:21,0.000,
    Until: 02:23,1.000,
    Until: 03:08,0.048,
    Until: 03:13,1.000,
    Until: 05:43,0.000,
    Until: 05:45,1.000,
    Until: 06:30,0.048,
    Until: 06:35,1.000,
    Until: 08:43,0.000,
    Until: 08:45,1.000,
    Until: 09:30,0.048,
    Until: 09:35,1.000,
    Until: 11:47,0.000,
    Until: 11:49,1.000,
    Until: 12:34,0.048,
    Until: 12:39,1.000,
    Until: 24:00,0.000,
    Through: 8/8,
    For: AllDays,
    Until: 24:00,0.000,
    Through: 8/9,
    For: AllDays,
    Until: 24:00,0.000,
    Through: 8/10,
    For: AllDays,
    Until: 01:25,0.000,
    Until: 01:27,1.000,
    Until: 02:12,0.048,
    Until: 02:17,1.000,
    Until: 03:24,0.000,
    Until: 03:26,1.000,
    Until: 04:11,0.048,
    Until: 04:16,1.000,
    Until: 11:22,0.000,
    Until: 11:24,1.000,
    Until: 12:09,0.048,
    Until: 12:14,1.000,
    Until: 24:00,0.000,
    Through: 8/11,
    For: AllDays,
    Until: 02:33,0.000,
    Until: 02:35,1.000,
    Until: 03:20,0.048,
    Until: 03:25,1.000,
    Until: 03:38,0.000,
    Until: 03:40,1.000,
    Until: 04:25,0.048,
    Until: 04:30,1.000,
    Until: 07:57,0.000,
    Until: 07:59,1.000,
    Until: 08:44,0.048,
    Until: 08:49,1.000,
    Until: 11:44,0.000,
    Until: 11:46,1.000,
    Until: 12:31,0.048,
    Until: 12:36,1.000,
    Until: 24:00,0.000,
    Through: 8/12,
    For: AllDays,
    Until: 00:52,0.000,
    Until: 00:54,1.000,
    Until: 01:39,0.048,
    Until: 01:44,1.000,
    Until: 03:16,0.000,
    Until: 03:18,1.000,
    Until: 04:03,0.048,
    Until: 04:08,1.000,
    Until: 05:47,0.000,
    Until: 05:49,1.000,
    Until: 06:34,0.048,
    Until: 06:39,1.000,
    Until: 08:28,0.000,
    Until: 08:30,1.000,
    Until: 09:15,0.048,
    Until: 09:20,1.000,
    Until: 13:20,0.000,
    Until: 13:22,1.000,
    Until: 14:07,0.048,
    Until: 14:12,1.000,
    Until: 24:00,0.000,
    Through: 8/13,
    For: AllDays,
    Until: 02:34,0.000,
    Until: 02:36,1.000,
    Until: 03:21,0.048,
    Until: 03:26,1.000,
    Until: 03:31,0.000,
    Until: 03:33,1.000,
    Until: 04:18,0.048,
    Until: 04:23,1.000,
    Until: 04:30,0.000,
    Until: 04:32,1.000,
    Until: 05:17,0.048,
    Until: 05:22,1.000,
    Until: 08:26,0.000,
    Until: 08:28,1.000,
    Until: 09:13,0.048,
    Until: 09:18,1.000,
    Until: 12:41,0.000,
    Until: 12:43,1.000,
    Until: 13:28,0.048,
    Until: 13:33,1.000,
    Until: 17:32,0.000,
    Until: 17:34,1.000,
    Until: 18:19,0.048,
    Until: 18:24,1.000,
    Until: 24:00,0.000,
    Through: 8/14,
    For: AllDays,
    Until: 02:18,0.000,
    Until: 02:20,1.000,
    Until: 03:05,0.048,
    Until: 03:10,1.000,
    Until: 06:48,0.000,
    Until: 06:50,1.000,
    Until: 07:35,0.048,
    Until: 07:40,1.000,
    Until: 13:24,0.000,
    Until: 13:26,1.000,
    Until: 14:11,0.048,
    Until: 14:16,1.000,
    Until: 24:00,0.000,
    Through: 8/15,
    For: AllDays,
    Until: 24:00,0.000,
    Through: 8/16,
    For: AllDays,
    Until: 24:00,0.000,
    Through: 8/17,
    For: AllDays,
    Until: 01:18,0.000,
    Until: 01:20,1.000,
    Until: 02:05,0.048,
    Until: 02:10,1.000,
    Until: 10:17,0.000,
    Until: 10:19,1.000,
    Until: 11:04,0.048,
    Until: 11:09,1.000,
    Until: 12:57,0.000,
    Until: 12:59,1.000,
    Until: 13:44,0.048,
    Until: 13:49,1.000,
    Until: 14:05,0.000,
    Until: 14:07,1.000,
    Until: 14:52,0.048,
    Until: 14:57,1.000,
    Until: 24:00,0.000,
    Through: 8/18,
    For: AllDays,
    Until: 02:06,0.000,
    Until: 02:08,1.000,
    Until: 02:53,0.048,
    Until: 02:58,1.000,
    Until: 03:22,0.000,
    Until: 03:24,1.000,
    Until: 04:09,0.048,
    Until: 04:14,1.000,
    Until: 04:32,0.000,
    Until: 04:34,1.000,
    Until: 05:19,0.048,
    Until: 05:24,1.000,
    Until: 12:27,0.000,
    Until: 12:29,1.000,
    Until: 13:14,0.048,
    Until: 13:19,1.000,
    Until: 17:46,0.000,
    Until: 17:48,1.000,
    Until: 18:33,0.048,
    Until: 18:38,1.000,
    Until: 24:00,0.000,
    Through: 8/19,
    For: AllDays,
    Until: 01:42,0.000,
    Until: 01:44,1.000,
    Until: 02:29,0.048,
    Until: 02:34,1.000,
    Until: 03:33,0.000,
    Until: 03:35,1.000,
    Until: 04:20,0.048,
    Until: 04:25,1.000,
    Until: 07:56,0.000,
    Until: 07:58,1.000,
    Until: 08:43,0.048,
    Until: 08:48,1.000,
    Until: 08:53,0.000,
    Until: 08:55,1.000,
    Until: 09:40,0.048,
    Until: 09:45,1.000,
    Until: 11:54,0.000,
    Until: 11:56,1.000,
    Until: 12:41,0.048,
    Until: 12:46,1.000,
    Until: 24:00,0.000,
    Through: 8/20,
    For: AllDays,
    Until: 01:10,0.000,
    Until: 01:12,1.000,
    Until: 01:57,0.048,
    Until: 02:02,1.000,
    Until: 02:39,0.000,
    Until: 02:41,1.000,
    Until: 03:26,0.048,
    Until: 03:31,1.000,
    Until: 08:12,0.000,
    Until: 08:14,1.000,
    Until: 08:59,0.048,
    Until: 09:04,1.000,
    Until: 10:38,0.000,
    Until: 10:40,1.000,
    Until: 11:25,0.048,
    Until: 11:30,1.000,
    Until: 12:52,0.000,
    Until: 12:54,1.000,
    Until: 13:39,0.048,
    Until: 13:44,1.000,
    Until: 17:34,0.000,
    Until: 17:36,1.000,
    Until: 18:21,0.048,
    Until: 18:26,1.000,
    Until: 24:00,0.000,
    Through: 8/21,
    For: AllDays,
    Until: 02:58,0.000,
    Until: 03:00,1.000,
    Until: 03:45,0.048,
    Until: 03:50,1.000,
    Until: 03:51,0.000,
    Until: 03:53,1.000,
    Until: 04:38,0.048,
    Until: 04:43,1.000,
    Until: 07:59,0.000,
    Until: 08:01,1.000,
    Until: 08:46,0.048,
    Until: 08:51,1.000,
    Until: 09:02,0.000,
    Until: 09:04,1.000,
    Until: 09:49,0.048,
    Until: 09:54,1.000,
    Until: 12:26,0.000,
    Until: 12:28,1.000,
    Until: 13:13,0.048,
    Until: 13:18,1.000,
    Until: 17:46,0.000,
    Until: 17:48,1.000,
    Until: 18:33,0.048,
    Until: 18:38,1.000,
    Until: 24:00,0.000,
    Through: 8/22,
    For: AllDays,
    Until: 24:00,0.000,
    Through: 8/23,
    For: AllDays,
    Until: 24:00,0.000,
    Through: 8/24,
    For: AllDays,
    Until: 01:21,0.000,
    Until: 01:23,1.000,
    Until: 02:08,0.048,
    Until: 02:13,1.000,
    Until: 02:41,0.000,
    Until: 02:43,1.000,
    Until: 03:28,0.048,
    Until: 03:33,1.000,
    Until: 05:31,0.000,
    Until: 05:33,1.000,
    Until: 06:18,0.048,
    Until: 06:23,1.000,
    Until: 12:25,0.000,
    Until: 12:27,1.000,
    Until: 13:12,0.048,
    Until: 13:17,1.000,
    Until: 17:39,0.000,
    Until: 17:41,1.000,
    Until: 18:26,0.048,
    Until: 18:31,1.000,
    Until: 24:00,0.000,
    Through: 8/25,
    For: AllDays,
    Until: 02:40,0.000,
    Until: 02:42,1.000,
    Until: 03:27,0.048,
    Until: 03:32,1.000,
    Until: 03:33,0.000,
    Until: 03:35,1.000,
    Until: 04:20,0.048,
    Until: 04:25,1.000,
    Until: 07:27,0.000,
    Until: 07:29,1.000,
    Until: 08:14,0.048,
    Until: 08:19,1.000,
    Until: 10:36,0.000,
    Until: 10:38,1.000,
    Until: 11:23,0.048,
    Until: 11:28,1.000,
    Until: 12:43,0.000,
    Until: 12:45,1.000,
    Until: 13:30,0.048,
    Until: 13:35,1.000,
    Until: 24:00,0.000,
    Through: 8/26,
    For: AllDays,
    Until: 02:02,0.000,
    Until: 02:04,1.000,
    Until: 02:49,0.048,
    Until: 02:54,1.000,
    Until: 03:18,0.000,
    Until: 03:20,1.000,
    Until: 04:05,0.048,
    Until: 04:10,1.000,
    Until: 08:04,0.000,
    Until: 08:06,1.000,
    Until: 08:51,0.048,
    Until: 08:56,1.000,
    Until: 24:00,0.000,
    Through: 8/27,
    For: AllDays,
    Until: 01:39,0.000,
    Until: 01:41,1.000,
    Until: 02:26,0.048,
    Until: 02:31,1.000,
    Until: 08:23,0.000,
    Until: 08:25,1.000,
    Until: 09:10,0.048,
    Until: 09:15,1.000,
    Until: 11:47,0.000,
    Until: 11:49,1.000,
    Until: 12:34,0.048,
    Until: 12:39,1.000,
    Until: 13:02,0.000,
    Until: 13:04,1.000,
    Until: 13:49,0.048,
    Until: 13:54,1.000,
    Until: 24:00,0.000,
    Through: 8/28,
    For: AllDays,
    Until: 00:44,0.000,
    Until: 00:46,1.000,
    Until: 01:31,0.048,
    Until: 01:36,1.000,
    Until: 04:02,0.000,
    Until: 04:04,1.000,
    Until: 04:49,0.048,
    Until: 04:54,1.000,
    Until: 10:11,0.000,
    Until: 10:13,1.000,
    Until: 10:58,0.048,
    Until: 11:03,1.000,
    Until: 17:32,0.000,
    Until: 17:34,1.000,
    Until: 18:19,0.048,
    Until: 18:24,1.000,
    Until: 24:00,0.000,
    Through: 8/29,
    For: AllDays,
    Until: 24:00,0.000,
    Through: 8/30,
    For: AllDays,
    Until: 24:00,0.000,
    Through: 8/31,
    For: AllDays,
    Until: 00:45,0.000,
    Until: 00:47,1.000,
    Until: 01:32,0.048,
    Until: 01:37,1.000,
    Until: 01:49,0.000,
    Until: 01:51,1.000,
    Until: 02:36,0.048,
    Until: 02:41,1.000,
    Until: 04:11,0.000,
    Until: 04:13,1.000,
    Until: 04:58,0.048,
    Until: 05:03,1.000,
    Until: 07:27,0.000,
    Until: 07:29,1.000,
    Until: 08:14,0.048,
    Until: 08:19,1.000,
    Until: 12:36,0.000,
    Until: 12:38,1.000,
    Until: 13:23,0.048,
    Until: 13:28,1.000,
    Until: 24:00,0.000,
    Through: 9/1,
    For: AllDays,
    Until: 01:35,0.000,
    Until: 01:37,1.000,
    Until: 02:22,0.048,
    Until: 02:27,1.000,
    Until: 02:43,0.000,
    Until: 02:45,1.000,
    Until: 03:30,0.048,
    Until: 03:35,1.000,
    Until: 12:33,0.000,
    Until: 12:35,1.000,
    Until: 13:20,0.048,
    Until: 13:25,1.000,
    Until: 13:35,0.000,
    Until: 13:37,1.000,
    Until: 14:22,0.048,
    Until: 14:27,1.000,
    Until: 18:24,0.000,
    Until: 18:26,1.000,
    Until: 19:11,0.048,
    Until: 19:16,1.000,
    Until: 24:00,0.000,
    Through: 9/2,
    For: AllDays,
    Until: 02:56,0.000,
    Until: 02:58,1.000,
    Until: 03:43,0.048,
    Until: 03:48,1.000,
    Until: 03:49,0.000,
    Until: 03:51,1.000,
    Until: 04:36,0.048,
    Until: 04:41,1.000,
    Until: 05:12,0.000,
    Until: 05:14,1.000,
    Until: 05:59,0.048,
    Until: 06:04,1.000,
    Until: 09:02,0.000,
    Until: 09:04,1.000,
    Until: 09:49,0.048,
    Until: 09:54,1.000,
    Until: 12:25,0.000,
    Until: 12:27,1.000,
    Until: 13:12,0.048,
    Until: 13:17,1.000,
    Until: 24:00,0.000,
    Through: 9/3,
    For: AllDays,
    Until: 02:02,0.000,
    Until: 02:04,1.000,
    Until: 02:49,0.048,
    Until: 02:54,1.000,
    Until: 02:55,0.000,
    Until: 02:57,1.000,
    Until: 03:42,0.048,
    Until: 03:47,1.000,
    Until: 09:07,0.000,
    Until: 09:09,1.000,
    Until: 09:54,0.048,
    Until: 09:59,1.000,
    Until: 11:34,0.000,
    Until: 11:36,1.000,
    Until: 12:21,0.048,
    Until: 12:26,1.000,
    Until: 24:00,0.000,
    Through: 9/4,
    For: AllDays,
    Until: 01:51,0.000,
    Until: 01:53,1.000,
    Until: 02:38,0.048,
    Until: 02:43,1.000,
    Until: 03:10,0.000,
    Until: 03:12,1.000,
    Until: 03:57,0.048,
    Until: 04:02,1.000,
    Until: 12:43,0.000,
    Until: 12:45,1.000,
    Until: 13:30,0.048,
    Until: 13:35,1.000,
    Until: 24:00,0.000,
    Through: 9/5,
    For: AllDays,
    Until: 24:00,0.000,
    Through: 9/6,
    For: AllDays,
    Until: 24:00,0.000,
    Through: 9/7,
    For: AllDays,
    Until: 01:03,0.000,
    Until: 01:05,1.000,
    Until: 01:50,0.048,
    Until: 01:55,1.000,
    Until: 02:53,0.000,
    Until: 02:55,1.000,
    Until: 03:40,0.048,
    Until: 03:45,1.000,
    Until: 08:09,0.000,
    Until: 08:11,1.000,
    Until: 08:56,0.048,
    Until: 09:01,1.000,
    Until: 12:32,0.000,
    Until: 12:34,1.000,
    Until: 13:19,0.048,
    Until: 13:24,1.000,
    Until: 18:27,0.000,
    Until: 18:29,1.000,
    Until: 19:14,0.048,
    Until: 19:19,1.000,
    Until: 24:00,0.000,
    Through: 9/8,
    For: AllDays,
    Until: 00:31,0.000,
    Until: 00:33,1.000,
    Until: 01:18,0.048,
    Until: 01:23,1.000,
    Until: 10:47,0.000,
    Until: 10:49,1.000,
    Until: 11:34,0.048,
    Until: 11:39,1.000,
    Until: 13:30,0.000,
    Until: 13:32,1.000,
    Until: 14:17,0.048,
    Until: 14:22,1.000,
    Until: 18:23,0.000,
    Until: 18:25,1.000,
    Until: 19:10,0.048,
    Until: 19:15,1.000,
    Until: 24:00,0.000,
    Through: 9/9,
    For: AllDays,
    Until: 02:16,0.000,
    Until: 02:18,1.000,
    Until: 03:03,0.048,
    Until: 03:08,1.000,
    Until: 03:22,0.000,
    Until: 03:24,1.000,
    Until: 04:09,0.048,
    Until: 04:14,1.000,
    Until: 11:41,0.000,
    Until: 11:43,1.000,
    Until: 12:28,0.048,
    Until: 12:33,1.000,
    Until: 13:28,0.000,
    Until: 13:30,1.000,
    Until: 14:15,0.048,
    Until: 14:20,1.000,
    Until: 16:56,0.000,
    Until: 16:58,1.000,
    Until: 17:43,0.048,
    Until: 17:48,1.000,
    Until: 24:00,0.000,
    Through: 9/10,
    For: AllDays,
    Until: 01:31,0.000,
    Until: 01:33,1.000,
    Until: 02:18,0.048,
    Until: 02:23,1.000,
    Until: 03:37,0.000,
    Until: 03:39,1.000,
    Until: 04:24,0.048,
    Until: 04:29,1.000,
    Until: 06:26,0.000,
    Until: 06:28,1.000,
    Until: 07:13,0.048,
    Until: 07:18,1.000,
    Until: 08:38,0.000,
    Until: 08:40,1.000,
    Until: 09:25,0.048,
    Until: 09:30,1.000,
    Until: 11:39,0.000,
    Until: 11:41,1.000,
    Until: 12:26,0.048,
    Until: 12:31,1.000,
    Until: 12:32,0.000,
    Until: 12:34,1.000,
    Until: 13:19,0.048,
    Until: 13:24,1.000,
    Until: 24:00,0.000,
    Through: 9/11,
    For: AllDays,
    Until: 02:27,0.000,
    Until: 02:29,1.000,
    Until: 03:14,0.048,
    Until: 03:19,1.000,
    Until: 03:20,0.000,
    Until: 03:22,1.000,
    Until: 04:07,0.048,
    Until: 04:12,1.000,
    Until: 06:21,0.000,
    Until: 06:23,1.000,
    Until: 07:08,0.048,
    Until: 07:13,1.000,
    Until: 12:23,0.000,
    Until: 12:25,1.000,
    Until: 13:10,0.048,
    Until: 13:15,1.000,
    Until: 13:22,0.000,
    Until: 13:24,1.000,
    Until: 14:09,0.048,
    Until: 14:14,1.000,
    Until: 18:15,0.000,
    Until: 18:17,1.000,
    Until: 19:02,0.048,
    Until: 19:07,1.000,
    Until: 24:00,0.000,
    Through: 9/12,
    For: AllDays,
    Until: 24:00,0.000,
    Through: 9/13,
    For: AllDays,
    Until: 24:00,0.000,
    Through: 9/14,
    For: AllDays,
    Until: 02:18,0.000,
    Until: 02:20,1.000,
    Until: 03:05,0.048,
    Until: 03:10,1.000,
    Until: 03:17,0.000,
    Until: 03:19,1.000,
    Until: 04:04,0.048,
    Until: 04:09,1.000,
    Until: 04:10,0.000,
    Until: 04:12,1.000,
    Until: 04:57,0.048,
    Until: 05:02,1.000,
    Until: 07:12,0.000,
    Until: 07:14,1.000,
    Until: 07:59,0.048,
    Until: 08:04,1.000,
    Until: 08:52,0.000,
    Until: 08:54,1.000,
    Until: 09:39,0.048,
    Until: 09:44,1.000,
    Until: 11:13,0.000,
    Until: 11:15,1.000,
    Until: 12:00,0.048,
    Until: 12:05,1.000,
    Until: 16:38,0.000,
    Until: 16:40,1.000,
    Until: 17:25,0.048,
    Until: 17:30,1.000,
    Until: 24:00,0.000,
    Through: 9/15,
    For: AllDays,
    Until: 02:32,0.000,
    Until: 02:34,1.000,
    Until: 03:19,0.048,
    Until: 03:24,1.000,
    Until: 03:54,0.000,
    Until: 03:56,1.000,
    Until: 04:41,0.048,
    Until: 04:46,1.000,
    Until: 07:15,0.000,
    Until: 07:17,1.000,
    Until: 08:02,0.048,
    Until: 08:07,1.000,
    Until: 12:04,0.000,
    Until: 12:06,1.000,
    Until: 12:51,0.048,
    Until: 12:56,1.000,
    Until: 18:00,0.000,
    Until: 18:02,1.000,
    Until: 18:47,0.048,
    Until: 18:52,1.000,
    Until: 24:00,0.000,
    Through: 9/16,
    For: AllDays,
    Until: 01:19,0.000,
    Until: 01:21,1.000,
    Until: 02:06,0.048,
    Until: 02:11,1.000,
    Until: 02:49,0.000,
    Until: 02:51,1.000,
    Until: 03:36,0.048,
    Until: 03:41,1.000,
    Until: 03:42,0.000,
    Until: 03:44,1.000,
    Until: 04:29,0.048,
    Until: 04:34,1.000,
    Until: 06:32,0.000,
    Until: 06:34,1.000,
    Until: 07:19,0.048,
    Until: 07:24,1.000,
    Until: 12:12,0.000,
    Until: 12:14,1.000,
    Until: 12:59,0.048,
    Until: 13:04,1.000,
    Until: 13:47,0.000,
    Until: 13:49,1.000,
    Until: 14:34,0.048,
    Until: 14:39,1.000,
    Until: 18:13,0.000,
    Until: 18:15,1.000,
    Until: 19:00,0.048,
    Until: 19:05,1.000,
    Until: 24:00,0.000,
    Through: 9/17,
    For: AllDays,
    Until: 01:22,0.000,
    Until: 01:24,1.000,
    Until: 02:09,0.048,
    Until: 02:14,1.000,
    Until: 03:09,0.000,
    Until: 03:11,1.000,
    Until: 03:56,0.048,
    Until: 04:01,1.000,
    Until: 08:01,0.000,
    Until: 08:03,1.000,
    Until: 08:48,0.048,
    Until: 08:53,1.000,
    Until: 11:14,0.000,
    Until: 11:16,1.000,
    Until: 12:01,0.048,
    Until: 12:06,1.000,
    Until: 18:44,0.000,
    Until: 18:46,1.000,
    Until: 19:31,0.048,
    Until: 19:36,1.000,
    Until: 24:00,0.000,
    Through: 9/18,
    For: AllDays,
    Until: 01:42,0.000,
    Until: 01:44,1.000,
    Until: 02:29,0.048,
    Until: 02:34,1.000,
    Until: 03:46,0.000,
    Until: 03:48,1.000,
    Until: 04:33,0.048,
    Until: 04:38,1.000,
    Until: 07:32,0.000,
    Until: 07:34,1.000,
    Until: 08:19,0.048,
    Until: 08:24,1.000,
    Until: 12:55,0.000,
    Until: 12:57,1.000,
    Until: 13:42,0.048,
    Until: 13:47,1.000,
    Until: 15:38,0.000,
    Until: 15:40,1.000,
    Until: 16:25,0.048,
    Until: 16:30,1.000,
    Until: 24:00,0.000,
    Through: 9/19,
    For: AllDays,
    Until: 24:00,0.000,
    Through: 9/20,
    For: AllDays,
    Until: 24:00,0.000,
    Through: 9/21,
    For: AllDays,
    Until: 01:48,0.000,
    Until: 01:50,1.000,
    Until: 02:35,0.048,
    Until: 02:40,1.000,
    Until: 02:41,0.000,
    Until: 02:43,1.000,
    Until: 03:28,0.048,
    Until: 03:33,1.000,
    Until: 07:27,0.000,
    Until: 07:29,1.000,
    Until: 08:14,0.048,
    Until: 08:19,1.000,
    Until: 10:36,0.000,
    Until: 10:38,1.000,
    Until: 11:23,0.048,
    Until: 11:28,1.000,
    Until: 13:18,0.000,
    Until: 13:20,1.000,
    Until: 14:05,0.048,
    Until: 14:10,1.000,
    Until: 17:48,0.000,
    Until: 17:50,1.000,
    Until: 18:35,0.048,
    Until: 18:40,1.000,
    Until: 24:00,0.000,
    Through: 9/22,
    For: AllDays,
    Until: 01:28,0.000,
    Until: 01:30,1.000,
    Until: 02:15,0.048,
    Until: 02:20,1.000,
    Until: 02:21,0.000,
    Until: 02:23,1.000,
    Until: 03:08,0.048,
    Until: 03:13,1.000,
    Until: 05:44,0.000,
    Until: 05:46,1.000,
    Until: 06:31,0.048,
    Until: 06:36,1.000,
    Until: 08:04,0.000,
    Until: 08:06,1.000,
    Until: 08:51,0.048,
    Until: 08:56,1.000,
    Until: 12:42,0.000,
    Until: 12:44,1.000,
    Until: 13:29,0.048,
    Until: 13:34,1.000,
    Until: 13:35,0.000,
    Until: 13:37,1.000,
    Until: 14:22,0.048,
    Until: 14:27,1.000,
    Until: 24:00,0.000,
    Through: 9/23,
    For: AllDays,
    Until: 01:03,0.000,
    Until: 01:05,1.000,
    Until: 01:50,0.048,
    Until: 01:55,1.000,
    Until: 03:06,0.000,
    Until: 03:08,1.000,
    Until: 03:53,0.048,
    Until: 03:58,1.000,
    Until: 04:09,0.000,
    Until: 04:11,1.000,
    Until: 04:56,0.048,
    Until: 05:01,1.000,
    Until: 06:09,0.000,
    Until: 06:11,1.000,
    Until: 06:56,0.048,
    Until: 07:01,1.000,
    Until: 08:29,0.000,
    Until: 08:31,1.000,
    Until: 09:16,0.048,
    Until: 09:21,1.000,
    Until: 10:19,0.000,
    Until: 10:21,1.000,
    Until: 11:06,0.048,
    Until: 11:11,1.000,
    Until: 12:58,0.000,
    Until: 13:00,1.000,
    Until: 13:45,0.048,
    Until: 13:50,1.000,
    Until: 24:00,0.000,
    Through: 9/24,
    For: AllDays,
    Until: 01:14,0.000,
    Until: 01:16,1.000,
    Until: 02:01,0.048,
    Until: 02:06,1.000,
    Until: 02:36,0.000,
    Until: 02:38,1.000,
    Until: 03:23,0.048,
    Until: 03:28,1.000,
    Until: 07:57,0.000,
    Until: 07:59,1.000,
    Until: 08:44,0.048,
    Until: 08:49,1.000,
    Until: 11:47,0.000,
    Until: 11:49,1.000,
    Until: 12:34,0.048,
    Until: 12:39,1.000,
    Until: 13:16,0.000,
    Until: 13:18,1.000,
    Until: 14:03,0.048,
    Until: 14:08,1.000,
    Until: 17:43,0.000,
    Until: 17:45,1.000,
    Until: 18:30,0.048,
    Until: 18:35,1.000,
    Until: 24:00,0.000,
    Through: 9/25,
    For: AllDays,
    Until: 02:05,0.000,
    Until: 02:07,1.000,
    Until: 02:52,0.048,
    Until: 02:57,1.000,
    Until: 03:07,0.000,
    Until: 03:09,1.000,
    Until: 03:54,0.048,
    Until: 03:59,1.000,
    Until: 04:30,0.000,
    Until: 04:32,1.000,
    Until: 05:17,0.048,
    Until: 05:22,1.000,
    Until: 07:39,0.000,
    Until: 07:41,1.000,
    Until: 08:26,0.048,
    Until: 08:31,1.000,
    Until: 11:36,0.000,
    Until: 11:38,1.000,
    Until: 12:23,0.048,
    Until: 12:28,1.000,
    Until: 12:53,0.000,
    Until: 12:55,1.000,
    Until: 13:40,0.048,
    Until: 13:45,1.000,
    Until: 24:00,0.000,
    Through: 9/26,
    For: AllDays,
    Until: 24:00,0.000,
    Through: 9/27,
    For: AllDays,
    Until: 24:00,0.000,
    Through: 9/28,
    For: AllDays,
    Until: 00:38,0.000,
    Until: 00:40,1.000,
    Until: 01:25,0.048,
    Until: 01:30,1.000,
    Until: 03:10,0.000,
    Until: 03:12,1.000,
    Until: 03:57,0.048,
    Until: 04:02,1.000,
    Until: 08:50,0.000,
    Until: 08:52,1.000,
    Until: 09:37,0.048,
    Until: 09:42,1.000,
    Until: 11:27,0.000,
    Until: 11:29,1.000,
    Until: 12:14,0.048,
    Until: 12:19,1.000,
    Until: 13:50,0.000,
    Until: 13:52,1.000,
    Until: 14:37,0.048,
    Until: 14:42,1.000,
    Until: 17:43,0.000,
    Until: 17:45,1.000,
    Until: 18:30,0.048,
    Until: 18:35,1.000,
    Until: 18:49,0.000,
    Until: 18:51,1.000,
    Until: 19:36,0.048,
    Until: 19:41,1.000,
    Until: 24:00,0.000,
    Through: 9/29,
    For: AllDays,
    Until: 02:24,0.000,
    Until: 02:26,1.000,
    Until: 03:11,0.048,
    Until: 03:16,1.000,
    Until: 03:18,0.000,
    Until: 03:20,1.000,
    Until: 04:05,0.048,
    Until: 04:10,1.000,
    Until: 07:48,0.000,
    Until: 07:50,1.000,
    Until: 08:35,0.048,
    Until: 08:40,1.000,
    Until: 13:05,0.000,
    Until: 13:07,1.000,
    Until: 13:52,0.048,
    Until: 13:57,1.000,
    Until: 24:00,0.000,
    Through: 9/30,
    For: AllDays,
    Until: 01:39,0.000,
    Until: 01:41,1.000,
    Until: 02:26,0.048,
    Until: 02:31,1.000,
    Until: 02:32,0.000,
    Until: 02:34,1.000,
    Until: 03:19,0.048,
    Until: 03:24,1.000,
    Until: 08:23,0.000,
    Until: 08:25,1.000,
    Until: 09:10,0.048,
    Until: 09:15,1.000,
    Until: 12:40,0.000,
    Until: 12:42,1.000,
    Until: 13:27,0.048,
    Until: 13:32,1.000,
    Until: 13:44,0.000,
    Until: 13:46,1.000,
    Until: 14:31,0.048,
    Until: 14:36,1.000,
    Until: 17:45,0.000,
    Until: 17:47,1.000,
    Until: 18:32,0.048,
    Until: 18:37,1.000,
    Until: 24:00,0.000,
    Through: 10/1,
    For: AllDays,
    Until: 01:58,0.000,
    Until: 02:00,1.000,
    Until: 02:45,0.048,
    Until: 02:50,1.000,
    Until: 02:51,0.000,
    Until: 02:53,1.000,
    Until: 03:38,0.048,
    Until: 03:43,1.000,
    Until: 07:32,0.000,
    Until: 07:34,1.000,
    Until: 08:19,0.048,
    Until: 08:24,1.000,
    Until: 08:53,0.000,
    Until: 08:55,1.000,
    Until: 09:40,0.048,
    Until: 09:45,1.000,
    Until: 10:12,0.000,
    Until: 10:14,1.000,
    Until: 10:59,0.048,
    Until: 11:04,1.000,
    Until: 24:00,0.000,
    Through: 10/2,
    For: AllDays,
    Until: 01:35,0.000,
    Until: 01:37,1.000,
    Until: 02:22,0.048,
    Until: 02:27,1.000,
    Until: 02:39,0.000,
    Until: 02:41,1.000,
    Until: 03:26,0.048,
    Until: 03:31,1.000,
    Until: 06:48,0.000,
    Until: 06:50,1.000,
    Until: 07:35,0.048,
    Until: 07:40,1.000,
    Until: 10:42,0.000,
    Until: 10:44,1.000,
    Until: 11:29,0.048,
    Until: 11:34,1.000,
    Until: 18:49,0.000,
    Until: 18:51,1.000,
    Until: 19:36,0.048,
    Until: 19:41,1.000,
    Until: 24:00,0.000,
    Through: 10/3,
    For: AllDays,
    Until: 24:00,0.000,
    Through: 10/4,
    For: AllDays,
    Until: 24:00,0.000,
    Through: 10/5,
    For: AllDays,
    Until: 01:32,0.000,
    Until: 01:34,1.000,
    Until: 02:19,0.048,
    Until: 02:24,1.000,
    Until: 02:54,0.000,
    Until: 02:56,1.000,
    Until: 03:41,0.048,
    Until: 03:46,1.000,
    Until: 04:28,0.000,
    Until: 04:30,1.000,
    Until: 05:15,0.048,
    Until: 05:20,1.000,
    Until: 08:53,0.000,
    Until: 08:55,1.000,
    Until: 09:40,0.048,
    Until: 09:45,1.000,
    Until: 11:46,0.000,
    Until: 11:48,1.000,
    Until: 12:33,0.048,
    Until: 12:38,1.000,
    Until: 15:11,0.000,
    Until: 15:13,1.000,
    Until: 15:58,0.048,
    Until: 16:03,1.000,
    Until: 24:00,0.000,
    Through: 10/6,
    For: AllDays,
    Until: 01:18,0.000,
    Until: 01:20,1.000,
    Until: 02:05,0.048,
    Until: 02:10,1.000,
    Until: 02:40,0.000,
    Until: 02:42,1.000,
    Until: 03:27,0.048,
    Until: 03:32,1.000,
    Until: 03:33,0.000,
    Until: 03:35,1.000,
    Until: 04:20,0.048,
    Until: 04:25,1.000,
    Until: 08:32,0.000,
    Until: 08:34,1.000,
    Until: 09:19,0.048,
    Until: 09:24,1.000,
    Until: 10:12,0.000,
    Until: 10:14,1.000,
    Until: 10:59,0.048,
    Until: 11:04,1.000,
    Until: 17:30,0.000,
    Until: 17:32,1.000,
    Until: 18:17,0.048,
    Until: 18:22,1.000,
    Until: 24:00,0.000,
    Through: 10/7,
    For: AllDays,
    Until: 01:33,0.000,
    Until: 01:35,1.000,
    Until: 02:20,0.048,
    Until: 02:25,1.000,
    Until: 02:50,0.000,
    Until: 02:52,1.000,
    Until: 03:37,0.048,
    Until: 03:42,1.000,
    Until: 03:43,0.000,
    Until: 03:45,1.000,
    Until: 04:30,0.048,
    Until: 04:35,1.000,
    Until: 07:53,0.000,
    Until: 07:55,1.000,
    Until: 08:40,0.048,
    Until: 08:45,1.000,
    Until: 12:04,0.000,
    Until: 12:06,1.000,
    Until: 12:51,0.048,
    Until: 12:56,1.000,
    Until: 18:52,0.000,
    Until: 18:54,1.000,
    Until: 19:39,0.048,
    Until: 19:44,1.000,
    Until: 24:00,0.000,
    Through: 10/8,
    For: AllDays,
    Until: 01:37,0.000,
    Until: 01:39,1.000,
    Until: 02:24,0.048,
    Until: 02:29,1.000,
    Until: 02:30,0.000,
    Until: 02:32,1.000,
    Until: 03:17,0.048,
    Until: 03:22,1.000,
    Until: 03:35,0.000,
    Until: 03:37,1.000,
    Until: 04:22,0.048,
    Until: 04:27,1.000,
    Until: 06:07,0.000,
    Until: 06:09,1.000,
    Until: 06:54,0.048,
    Until: 06:59,1.000,
    Until: 08:37,0.000,
    Until: 08:39,1.000,
    Until: 09:24,0.048,
    Until: 09:29,1.000,
    Until: 10:53,0.000,
    Until: 10:55,1.000,
    Until: 11:40,0.048,
    Until: 11:45,1.000,
    Until: 12:13,0.000,
    Until: 12:15,1.000,
    Until: 13:00,0.048,
    Until: 13:05,1.000,
    Until: 24:00,0.000,
    Through: 10/9,
    For: AllDays,
    Until: 01:42,0.000,
    Until: 01:44,1.000,
    Until: 02:29,0.048,
    Until: 02:34,1.000,
    Until: 02:51,0.000,
    Until: 02:53,1.000,
    Until: 03:38,0.048,
    Until: 03:43,1.000,
    Until: 04:00,0.000,
    Until: 04:02,1.000,
    Until: 04:47,0.048,
    Until: 04:52,1.000,
    Until: 07:29,0.000,
    Until: 07:31,1.000,
    Until: 08:16,0.048,
    Until: 08:21,1.000,
    Until: 12:38,0.000,
    Until: 12:40,1.000,
    Until: 13:25,0.048,
    Until: 13:30,1.000,
    Until: 18:29,0.000,
    Until: 18:31,1.000,
    Until: 19:16,0.048,
    Until: 19:21,1.000,
    Until: 24:00,0.000,
    Through: 10/10,
    For: AllDays,
    Until: 24:00,0.000,
    Through: 10/11,
    For: AllDays,
    Until: 24:00,0.000,
    Through: 10/12,
    For: AllDays,
    Until: 02:55,0.000,
    Until: 02:57,1.000,
    Until: 03:42,0.048,
    Until: 03:47,1.000,
    Until: 03:48,0.000,
    Until: 03:50,1.000,
    Until: 04:35,0.048,
    Until: 04:40,1.000,
    Until: 11:17,0.000,
    Until: 11:19,1.000,
    Until: 12:04,0.048,
    Until: 12:09,1.000,
    Until: 24:00,0.000,
    Through: 10/13,
    For: AllDays,
    Until: 01:56,0.000,
    Until: 01:58,1.000,
    Until: 02:43,0.048,
    Until: 02:48,1.000,
    Until: 02:49,0.000,
    Until: 02:51,1.000,
    Until: 03:36,0.048,
    Until: 03:41,1.000,
    Until: 03:42,0.000,
    Until: 03:44,1.000,
    Until: 04:29,0.048,
    Until: 04:34,1.000,
    Until: 06:22,0.000,
    Until: 06:24,1.000,
    Until: 07:09,0.048,
    Until: 07:14,1.000,
    Until: 10:33,0.000,
    Until: 10:35,1.000,
    Until: 11:20,0.048,
    Until: 11:25,1.000,
    Until: 12:56,0.000,
    Until: 12:58,1.000,
    Until: 13:43,0.048,
    Until: 13:48,1.000,
    Until: 17:50,0.000,
    Until: 17:52,1.000,
    Until: 18:37,0.048,
    Until: 18:42,1.000,
    Until: 24:00,0.000,
    Through: 10/14,
    For: AllDays,
    Until: 02:50,0.000,
    Until: 02:52,1.000,
    Until: 03:37,0.048,
    Until: 03:42,1.000,
    Until: 03:43,0.000,
    Until: 03:45,1.000,
    Until: 04:30,0.048,
    Until: 04:35,1.000,
    Until: 08:01,0.000,
    Until: 08:03,1.000,
    Until: 08:48,0.048,
    Until: 08:53,1.000,
    Until: 08:59,0.000,
    Until: 09:01,1.000,
    Until: 09:46,0.048,
    Until: 09:51,1.000,
    Until: 11:49,0.000,
    Until: 11:51,1.000,
    Until: 12:36,0.048,
    Until: 12:41,1.000,
    Until: 16:53,0.000,
    Until: 16:55,1.000,
    Until: 17:40,0.048,
    Until: 17:45,1.000,
    Until: 24:00,0.000,
    Through: 10/15,
    For: AllDays,
    Until: 01:57,0.000,
    Until: 01:59,1.000,
    Until: 02:44,0.048,
    Until: 02:49,1.000,
    Until: 02:53,0.000,
    Until: 02:55,1.000,
    Until: 03:40,0.048,
    Until: 03:45,1.000,
    Until: 05:38,0.000,
    Until: 05:40,1.000,
    Until: 06:25,0.048,
    Until: 06:30,1.000,
    Until: 11:14,0.000,
    Until: 11:16,1.000,
    Until: 12:01,0.048,
    Until: 12:06,1.000,
    Until: 12:31,0.000,
    Until: 12:33,1.000,
    Until: 13:18,0.048,
    Until: 13:23,1.000,
    Until: 24:00,0.000,
    Through: 10/16,
    For: AllDays,
    Until: 02:26,0.000,
    Until: 02:28,1.000,
    Until: 03:13,0.048,
    Until: 03:18,1.000,
    Until: 03:24,0.000,
    Until: 03:26,1.000,
    Until: 04:11,0.048,
    Until: 04:16,1.000,
    Until: 07:48,0.000,
    Until: 07:50,1.000,
    Until: 08:35,0.048,
    Until: 08:40,1.000,
    Until: 10:38,0.000,
    Until: 10:40,1.000,
    Until: 11:25,0.048,
    Until: 11:30,1.000,
    Until: 13:04,0.000,
    Until: 13:06,1.000,
    Until: 13:51,0.048,
    Until: 13:56,1.000,
    Until: 24:00,0.000,
    Through: 10/17,
    For: AllDays,
    Until: 24:00,0.000,
    Through: 10/18,
    For: AllDays,
    Until: 24:00,0.000,
    Through: 10/19,
    For: AllDays,
    Until: 01:42,0.000,
    Until: 01:44,1.000,
    Until: 02:29,0.048,
    Until: 02:34,1.000,
    Until: 02:52,0.000,
    Until: 02:54,1.000,
    Until: 03:39,0.048,
    Until: 03:44,1.000,
    Until: 06:57,0.000,
    Until: 06:59,1.000,
    Until: 07:44,0.048,
    Until: 07:49,1.000,
    Until: 12:00,0.000,
    Until: 12:02,1.000,
    Until: 12:47,0.048,
    Until: 12:52,1.000,
    Until: 18:41,0.000,
    Until: 18:43,1.000,
    Until: 19:28,0.048,
    Until: 19:33,1.000,
    Until: 24:00,0.000,
    Through: 10/20,
    For: AllDays,
    Until: 02:02,0.000,
    Until: 02:04,1.000,
    Until: 02:49,0.048,
    Until: 02:54,1.000,
    Until: 03:16,0.000,
    Until: 03:18,1.000,
    Until: 04:03,0.048,
    Until: 04:08,1.000,
    Until: 04:09,0.000,
    Until: 04:11,1.000,
    Until: 04:56,0.048,
    Until: 05:01,1.000,
    Until: 06:35,0.000,
    Until: 06:37,1.000,
    Until: 07:22,0.048,
    Until: 07:27,1.000,
    Until: 11:33,0.000,
    Until: 11:35,1.000,
    Until: 12:20,0.048,
    Until: 12:25,1.000,
    Until: 12:39,0.000,
    Until: 12:41,1.000,
    Until: 13:26,0.048,
    Until: 13:31,1.000,
    Until: 24:00,0.000,
    Through: 10/21,
    For: AllDays,
    Until: 02:27,0.000,
    Until: 02:29,1.000,
    Until: 03:14,0.048,
    Until: 03:19,1.000,
    Until: 03:43,0.000,
    Until: 03:45,1.000,
    Until: 04:30,0.048,
    Until: 04:35,1.000,
    Until: 04:36,0.000,
    Until: 04:38,1.000,
    Until: 05:23,0.048,
    Until: 05:28,1.000,
    Until: 11:06,0.000,
    Until: 11:08,1.000,
    Until: 11:53,0.048,
    Until: 11:58,1.000,
    Until: 13:51,0.000,
    Until: 13:53,1.000,
    Until: 14:38,0.048,
    Until: 14:43,1.000,
    Until: 17:24,0.000,
    Until: 17:26,1.000,
    Until: 18:11,0.048,
    Until: 18:16,1.000,
    Until: 24:00,0.000,
    Through: 10/22,
    For: AllDays,
    Until: 01:28,0.000,
    Until: 01:30,1.000,
    Until: 02:15,0.048,
    Until: 02:20,1.000,
    Until: 02:21,0.000,
    Until: 02:23,1.000,
    Until: 03:08,0.048,
    Until: 03:13,1.000,
    Until: 07:12,0.000,
    Until: 07:14,1.000,
    Until: 07:59,0.048,
    Until: 08:04,1.000,
    Until: 11:24,0.000,
    Until: 11:26,1.000,
    Until: 12:11,0.048,
    Until: 12:16,1.000,
    Until: 24:00,0.000,
    Through: 10/23,
    For: AllDays,
    Until: 01:29,0.000,
    Until: 01:31,1.000,
    Until: 02:16,0.048,
    Until: 02:21,1.000,
    Until: 02:25,0.000,
    Until: 02:27,1.000,
    Until: 03:12,0.048,
    Until: 03:17,1.000,
    Until: 07:07,0.000,
    Until: 07:09,1.000,
    Until: 07:54,0.048,
    Until: 07:59,1.000,
    Until: 08:57,0.000,
    Until: 08:59,1.000,
    Until: 09:44,0.048,
    Until: 09:49,1.000,
    Until: 12:51,0.000,
    Until: 12:53,1.000,
    Until: 13:38,0.048,
    Until: 13:43,1.000,
    Until: 15:10,0.000,
    Until: 15:12,1.000,
    Until: 15:57,0.048,
    Until: 16:02,1.000,
    Until: 24:00,0.000,
    Through: 10/24,
    For: AllDays,
    Until: 24:00,0.000,
    Through: 10/25,
    For: AllDays,
    Until: 24:00,0.000,
    Through: 10/26,
    For: AllDays,
    Until: 00:49,0.000,
    Until: 00:51,1.000,
    Until: 01:36,0.048,
    Until: 01:41,1.000,
    Until: 02:10,0.000,
    Until: 02:12,1.000,
    Until: 02:57,0.048,
    Until: 03:02,1.000,
    Until: 03:27,0.000,
    Until: 03:29,1.000,
    Until: 04:14,0.048,
    Until: 04:19,1.000,
    Until: 04:36,0.000,
    Until: 04:38,1.000,
    Until: 05:23,0.048,
    Until: 05:28,1.000,
    Until: 08:02,0.000,
    Until: 08:04,1.000,
    Until: 08:49,0.048,
    Until: 08:54,1.000,
    Until: 09:39,0.000,
    Until: 09:41,1.000,
    Until: 10:26,0.048,
    Until: 10:31,1.000,
    Until: 24:00,0.000,
    Through: 10/27,
    For: AllDays,
    Until: 01:28,0.000,
    Until: 01:30,1.000,
    Until: 02:15,0.048,
    Until: 02:20,1.000,
    Until: 04:26,0.000,
    Until: 04:28,1.000,
    Until: 05:13,0.048,
    Until: 05:18,1.000,
    Until: 06:04,0.000,
    Until: 06:06,1.000,
    Until: 06:51,0.048,
    Until: 06:56,1.000,
    Until: 09:05,0.000,
    Until: 09:07,1.000,
    Until: 09:52,0.048,
    Until: 09:57,1.000,
    Until: 10:38,0.000,
    Until: 10:40,1.000,
    Until: 11:25,0.048,
    Until: 11:30,1.000,
    Until: 24:00,0.000,
    Through: 10/28,
    For: AllDays,
    Until: 00:39,0.000,
    Until: 00:41,1.000,
    Until: 01:26,0.048,
    Until: 01:31,1.000,
    Until: 02:07,0.000,
    Until: 02:09,1.000,
    Until: 02:54,0.048,
    Until: 02:59,1.000,
    Until: 03:06,0.000,
    Until: 03:08,1.000,
    Until: 03:53,0.048,
    Until: 03:58,1.000,
    Until: 03:59,0.000,
    Until: 04:01,1.000,
    Until: 04:46,0.048,
    Until: 04:51,1.000,
    Until: 04:59,0.000,
    Until: 05:01,1.000,
    Until: 05:46,0.048,
    Until: 05:51,1.000,
    Until: 08:55,0.000,
    Until: 08:57,1.000,
    Until: 09:42,0.048,
    Until: 09:47,1.000,
    Until: 17:41,0.000,
    Until: 17:43,1.000,
    Until: 18:28,0.048,
    Until: 18:33,1.000,
    Until: 24:00,0.000,
    Through: 10/29,
    For: AllDays,
    Until: 00:31,0.000,
    Until: 00:33,1.000,
    Until: 01:18,0.048,
    Until: 01:23,1.000,
    Until: 01:51,0.000,
    Until: 01:53,1.000,
    Until: 02:38,0.048,
    Until: 02:43,1.000,
    Until: 03:11,0.000,
    Until: 03:13,1.000,
    Until: 03:58,0.048,
    Until: 04:03,1.000,
    Until: 07:49,0.000,
    Until: 07:51,1.000,
    Until: 08:36,0.048,
    Until: 08:41,1.000,
    Until: 13:00,0.000,
    Until: 13:02,1.000,
    Until: 13:47,0.048,
    Until: 13:52,1.000,
    Until: 18:24,0.000,
    Until: 18:26,1.000,
    Until: 19:11,0.048,
    Until: 19:16,1.000,
    Until: 24:00,0.000,
    Through: 10/30,
    For: AllDays,
    Until: 00:49,0.000,
    Until: 00:51,1.000,
    Until: 01:36,0.048,
    Until: 01:41,1.000,
    Until: 07:38,0.000,
    Until: 07:40,1.000,
    Until: 08:25,0.048,
    Until: 08:30,1.000,
    Until: 10:53,0.000,
    Until: 10:55,1.000,
    Until: 11:40,0.048,
    Until: 11:45,1.000,
    Until: 24:00,0.000,
    Through: 10/31,
    For: AllDays,
    Until: 24:00,0.000,
    Through: 11/1,
    For: AllDays,
    Until: 24:00,0.000,
    Through: 11/2,
    For: AllDays,
    Until: 01:48,0.000,
    Until: 01:50,1.000,
    Until: 02:35,0.048,
    Until: 02:40,1.000,
    Until: 03:10,0.000,
    Until: 03:12,1.000,
    Until: 03:57,0.048,
    Until: 04:02,1.000,
    Until: 07:55,0.000,
    Until: 07:57,1.000,
    Until: 08:42,0.048,
    Until: 08:47,1.000,
    Until: 11:58,0.000,
    Until: 12:00,1.000,
    Until: 12:45,0.048,
    Until: 12:50,1.000,
    Until: 24:00,0.000,
    Through: 11/3,
    For: AllDays,
    Until: 01:22,0.000,
    Until: 01:24,1.000,
    Until: 02:09,0.048,
    Until: 02:14,1.000,
    Until: 02:37,0.000,
    Until: 02:39,1.000,
    Until: 03:24,0.048,
    Until: 03:29,1.000,
    Until: 12:21,0.000,
    Until: 12:23,1.000,
    Until: 13:08,0.048,
    Until: 13:13,1.000,
    Until: 13:37,0.000,
    Until: 13:39,1.000,
    Until: 14:24,0.048,
    Until: 14:29,1.000,
    Until: 24:00,0.000,
    Through: 11/4,
    For: AllDays,
    Until: 02:44,0.000,
    Until: 02:46,1.000,
    Until: 03:31,0.048,
    Until: 03:36,1.000,
    Until: 06:36,0.000,
    Until: 06:38,1.000,
    Until: 07:23,0.048,
    Until: 07:28,1.000,
    Until: 13:09,0.000,
    Until: 13:11,1.000,
    Until: 13:56,0.048,
    Until: 14:01,1.000,
    Until: 24:00,0.000,
    Through: 11/5,
    For: AllDays,
    Until: 00:53,0.000,
    Until: 00:55,1.000,
    Until: 01:40,0.048,
    Until: 01:45,1.000,
    Until: 02:46,0.000,
    Until: 02:48,1.000,
    Until: 03:33,0.048,
    Until: 03:38,1.000,
    Until: 13:00,0.000,
    Until: 13:02,1.000,
    Until: 13:47,0.048,
    Until: 13:52,1.000,
    Until: 24:00,0.000,
    Through: 11/6,
    For: AllDays,
    Until: 02:51,0.000,
    Until: 02:53,1.000,
    Until: 03:38,0.048,
    Until: 03:43,1.000,
    Until: 03:44,0.000,
    Until: 03:46,1.000,
    Until: 04:31,0.048,
    Until: 04:36,1.000,
    Until: 07:18,0.000,
    Until: 07:20,1.000,
    Until: 08:05,0.048,
    Until: 08:10,1.000,
    Until: 24:00,0.000,
    Through: 11/7,
    For: AllDays,
    Until: 24:00,0.000,
    Through: 11/8,
    For: AllDays,
    Until: 24:00,0.000,
    Through: 11/9,
    For: AllDays,
    Until: 01:49,0.000,
    Until: 01:51,1.000,
    Until: 02:36,0.048,
    Until: 02:41,1.000,
    Until: 02:59,0.000,
    Until: 03:01,1.000,
    Until: 03:46,0.048,
    Until: 03:51,1.000,
    Until: 12:24,0.000,
    Until: 12:26,1.000,
    Until: 13:11,0.048,
    Until: 13:16,1.000,
    Until: 24:00,0.000,
    Through: 11/10,
    For: AllDays,
    Until: 02:29,0.000,
    Until: 02:31,1.000,
    Until: 03:16,0.048,
    Until: 03:21,1.000,
    Until: 03:22,0.000,
    Until: 03:24,1.000,
    Until: 04:09,0.048,
    Until: 04:14,1.000,
    Until: 06:46,0.000,
    Until: 06:48,1.000,
    Until: 07:33,0.048,
    Until: 07:38,1.000,
    Until: 12:51,0.000,
    Until: 12:53,1.000,
    Until: 13:38,0.048,
    Until: 13:43,1.000,
    Until: 14:18,0.000,
    Until: 14:20,1.000,
    Until: 15:05,0.048,
    Until: 15:10,1.000,
    Until: 24:00,0.000,
    Through: 11/11,
    For: AllDays,
    Until: 00:53,0.000,
    Until: 00:55,1.000,
    Until: 01:40,0.048,
    Until: 01:45,1.000,
    Until: 04:06,0.000,
    Until: 04:08,1.000,
    Until: 04:53,0.048,
    Until: 04:58,1.000,
    Until: 07:30,0.000,
    Until: 07:32,1.000,
    Until: 08:17,0.048,
    Until: 08:22,1.000,
    Until: 10:39,0.000,
    Until: 10:41,1.000,
    Until: 11:26,0.048,
    Until: 11:31,1.000,
    Until: 24:00,0.000,
    Through: 11/12,
    For: AllDays,
    Until: 02:53,0.000,
    Until: 02:55,1.000,
    Until: 03:40,0.048,
    Until: 03:45,1.000,
    Until: 07:04,0.000,
    Until: 07:06,1.000,
    Until: 07:51,0.048,
    Until: 07:56,1.000,
    Until: 11:13,0.000,
    Until: 11:15,1.000,
    Until: 12:00,0.048,
    Until: 12:05,1.000,
    Until: 13:45,0.000,
    Until: 13:47,1.000,
    Until: 14:32,0.048,
    Until: 14:37,1.000,
    Until: 24:00,0.000,
    Through: 11/13,
    For: AllDays,
    Until: 02:08,0.000,
    Until: 02:10,1.000,
    Until: 02:55,0.048,
    Until: 03:00,1.000,
    Until: 06:40,0.000,
    Until: 06:42,1.000,
    Until: 07:27,0.048,
    Until: 07:32,1.000,
    Until: 11:38,0.000,
    Until: 11:40,1.000,
    Until: 12:25,0.048,
    Until: 12:30,1.000,
    Until: 24:00,0.000,
    Through: 11/14,
    For: AllDays,
    Until: 24:00,0.000,
    Through: 11/15,
    For: AllDays,
    Until: 24:00,0.000,
    Through: 11/16,
    For: AllDays,
    Until: 02:50,0.000,
    Until: 02:52,1.000,
    Until: 03:37,0.048,
    Until: 03:42,1.000,
    Until: 03:43,0.000,
    Until: 03:45,1.000,
    Until: 04:30,0.048,
    Until: 04:35,1.000,
    Until: 24:00,0.000,
    Through: 11/17,
    For: AllDays,
    Until: 02:30,0.000,
    Until: 02:32,1.000,
    Until: 03:17,0.048,
    Until: 03:22,1.000,
    Until: 03:23,0.000,
    Until: 03:25,1.000,
    Until: 04:10,0.048,
    Until: 04:15,1.000,
    Until: 07:39,0.000,
    Until: 07:41,1.000,
    Until: 08:26,0.048,
    Until: 08:31,1.000,
    Until: 12:46,0.000,
    Until: 12:48,1.000,
    Until: 13:33,0.048,
    Until: 13:38,1.000,
    Until: 24:00,0.000,
    Through: 11/18,
    For: AllDays,
    Until: 01:22,0.000,
    Until: 01:24,1.000,
    Until: 02:09,0.048,
    Until: 02:14,1.000,
    Until: 03:44,0.000,
    Until: 03:46,1.000,
    Until: 04:31,0.048,
    Until: 04:36,1.000,
    Until: 12:01,0.000,
    Until: 12:03,1.000,
    Until: 12:48,0.048,
    Until: 12:53,1.000,
    Until: 13:49,0.000,
    Until: 13:51,1.000,
    Until: 14:36,0.048,
    Until: 14:41,1.000,
    Until: 24:00,0.000,
    Through: 11/19,
    For: AllDays,
    Until: 01:32,0.000,
    Until: 01:34,1.000,
    Until: 02:19,0.048,
    Until: 02:24,1.000,
    Until: 02:43,0.000,
    Until: 02:45,1.000,
    Until: 03:30,0.048,
    Until: 03:35,1.000,
    Until: 03:47,0.000,
    Until: 03:49,1.000,
    Until: 04:34,0.048,
    Until: 04:39,1.000,
    Until: 07:10,0.000,
    Until: 07:12,1.000,
    Until: 07:57,0.048,
    Until: 08:02,1.000,
    Until: 12:47,0.000,
    Until: 12:49,1.000,
    Until: 13:34,0.048,
    Until: 13:39,1.000,
    Until: 13:57,0.000,
    Until: 13:59,1.000,
    Until: 14:44,0.048,
    Until: 14:49,1.000,
    Until: 24:00,0.000,
    Through: 11/20,
    For: AllDays,
    Until: 00:54,0.000,
    Until: 00:56,1.000,
    Until: 01:41,0.048,
    Until: 01:46,1.000,
    Until: 04:04,0.000,
    Until: 04:06,1.000,
    Until: 04:51,0.048,
    Until: 04:56,1.000,
    Until: 08:27,0.000,
    Until: 08:29,1.000,
    Until: 09:14,0.048,
    Until: 09:19,1.000,
    Until: 13:26,0.000,
    Until: 13:28,1.000,
    Until: 14:13,0.048,
    Until: 14:18,1.000,
    Until: 17:58,0.000,
    Until: 18:00,1.000,
    Until: 18:45,0.048,
    Until: 18:50,1.000,
    Until: 24:00,0.000,
    Through: 11/21,
    For: AllDays,
    Until: 24:00,0.000,
    Through: 11/22,
    For: AllDays,
    Until: 24:00,0.000,
    Through: 11/23,
    For: AllDays,
    Until: 02:35,0.000,
    Until: 02:37,1.000,
    Until: 03:22,0.048,
    Until: 03:27,1.000,
    Until: 17:53,0.000,
    Until: 17:55,1.000,
    Until: 18:40,0.048,
    Until: 18:45,1.000,
    Until: 24:00,0.000,
    Through: 11/24,
    For: AllDays,
    Until: 02:03,0.000,
    Until: 02:05,1.000,
    Until: 02:50,0.048,
    Until: 02:55,1.000,
    Until: 03:43,0.000,
    Until: 03:45,1.000,
    Until: 04:30,0.048,
    Until: 04:35,1.000,
    Until: 13:26,0.000,
    Until: 13:28,1.000,
    Until: 14:13,0.048,
    Until: 14:18,1.000,
    Until: 17:09,0.000,
    Until: 17:11,1.000,
    Until: 17:56,0.048,
    Until: 18:01,1.000,
    Until: 24:00,0.000,
    Through: 11/25,
    For: AllDays,
    Until: 01:42,0.000,
    Until: 01:44,1.000,
    Until: 02:29,0.048,
    Until: 02:34,1.000,
    Until: 24:00,0.000,
    Through: 11/26,
    For: AllDays,
    Until: 02:02,0.000,
    Until: 02:04,1.000,
    Until: 02:49,0.048,
    Until: 02:54,1.000,
    Until: 03:07,0.000,
    Until: 03:09,1.000,
    Until: 03:54,0.048,
    Until: 03:59,1.000,
    Until: 07:58,0.000,
    Until: 08:00,1.000,
    Until: 08:45,0.048,
    Until: 08:50,1.000,
    Until: 14:07,0.000,
    Until: 14:09,1.000,
    Until: 14:54,0.048,
    Until: 14:59,1.000,
    Until: 17:52,0.000,
    Until: 17:54,1.000,
    Until: 18:39,0.048,
    Until: 18:44,1.000,
    Until: 24:00,0.000,
    Through: 11/27,
    For: AllDays,
    Until: 00:27,0.000,
    Until: 00:29,1.000,
    Until: 01:14,0.048,
    Until: 01:19,1.000,
    Until: 02:24,0.000,
    Until: 02:26,1.000,
    Until: 03:11,0.048,
    Until: 03:16,1.000,
    Until: 03:56,0.000,
    Until: 03:58,1.000,
    Until: 04:43,0.048,
    Until: 04:48,1.000,
    Until: 05:02,0.000,
    Until: 05:04,1.000,
    Until: 05:49,0.048,
    Until: 05:54,1.000,
    Until: 12:32,0.000,
    Until: 12:34,1.000,
    Until: 13:19,0.048,
    Until: 13:24,1.000,
    Until: 24:00,0.000,
    Through: 11/28,
    For: AllDays,
    Until: 24:00,0.000,
    Through: 11/29,
    For: AllDays,
    Until: 24:00,0.000,
    Through: 11/30,
    For: AllDays,
    Until: 02:22,0.000,
    Until: 02:24,1.000,
    Until: 03:09,0.048,
    Until: 03:14,1.000,
    Until: 07:31,0.000,
    Until: 07:33,1.000,
    Until: 08:18,0.048,
    Until: 08:23,1.000,
    Until: 13:14,0.000,
    Until: 13:16,1.000,
    Until: 14:01,0.048,
    Until: 14:06,1.000,
    Until: 24:00,0.000,
    Through: 12/1,
    For: AllDays,
    Until: 02:45,0.000,
    Until: 02:47,1.000,
    Until: 03:32,0.048,
    Until: 03:37,1.000,
    Until: 03:38,0.000,
    Until: 03:40,1.000,
    Until: 04:25,0.048,
    Until: 04:30,1.000,
    Until: 07:55,0.000,
    Until: 07:57,1.000,
    Until: 08:42,0.048,
    Until: 08:47,1.000,
    Until: 12:26,0.000,
    Until: 12:28,1.000,
    Until: 13:13,0.048,
    Until: 13:18,1.000,
    Until: 18:08,0.000,
    Until: 18:10,1.000,
    Until: 18:55,0.048,
    Until: 19:00,1.000,
    Until: 24:00,0.000,
    Through: 12/2,
    For: AllDays,
    Until: 03:15,0.000,
    Until: 03:17,1.000,
    Until: 04:02,0.048,
    Until: 04:07,1.000,
    Until: 07:05,0.000,
    Until: 07:07,1.000,
    Until: 07:52,0.048,
    Until: 07:57,1.000,
    Until: 12:37,0.000,
    Until: 12:39,1.000,
    Until: 13:24,0.048,
    Until: 13:29,1.000,
    Until: 17:39,0.000,
    Until: 17:41,1.000,
    Until: 18:26,0.048,
    Until: 18:31,1.000,
    Until: 24:00,0.000,
    Through: 12/3,
    For: AllDays,
    Until: 02:46,0.000,
    Until: 02:48,1.000,
    Until: 03:33,0.048,
    Until: 03:38,1.000,
    Until: 04:15,0.000,
    Until: 04:17,1.000,
    Until: 05:02,0.048,
    Until: 05:07,1.000,
    Until: 08:01,0.000,
    Until: 08:03,1.000,
    Until: 08:48,0.048,
    Until: 08:53,1.000,
    Until: 09:17,0.000,
    Until: 09:19,1.000,
    Until: 10:04,0.048,
    Until: 10:09,1.000,
    Until: 12:30,0.000,
    Until: 12:32,1.000,
    Until: 13:17,0.048,
    Until: 13:22,1.000,
    Until: 13:37,0.000,
    Until: 13:39,1.000,
    Until: 14:24,0.048,
    Until: 14:29,1.000,
    Until: 24:00,0.000,
    Through: 12/4,
    For: AllDays,
    Until: 02:37,0.000,
    Until: 02:39,1.000,
    Until: 03:24,0.048,
    Until: 03:29,1.000,
    Until: 07:09,0.000,
    Until: 07:11,1.000,
    Until: 07:56,0.048,
    Until: 08:01,1.000,
    Until: 13:16,0.000,
    Until: 13:18,1.000,
    Until: 14:03,0.048,
    Until: 14:08,1.000,
    Until: 24:00,0.000,
    Through: 12/5,
    For: AllDays,
    Until: 24:00,0.000,
    Through: 12/6,
    For: AllDays,
    Until: 24:00,0.000,
    Through: 12/7,
    For: AllDays,
    Until: 02:28,0.000,
    Until: 02:30,1.000,
    Until: 03:15,0.048,
    Until: 03:20,1.000,
    Until: 11:13,0.000,
    Until: 11:15,1.000,
    Until: 12:00,0.048,
    Until: 12:05,1.000,
    Until: 12:18,0.000,
    Until: 12:20,1.000,
    Until: 13:05,0.048,
    Until: 13:10,1.000,
    Until: 24:00,0.000,
    Through: 12/8,
    For: AllDays,
    Until: 01:07,0.000,
    Until: 01:09,1.000,
    Until: 01:54,0.048,
    Until: 01:59,1.000,
    Until: 02:37,0.000,
    Until: 02:39,1.000,
    Until: 03:24,0.048,
    Until: 03:29,1.000,
    Until: 04:38,0.000,
    Until: 04:40,1.000,
    Until: 05:25,0.048,
    Until: 05:30,1.000,
    Until: 07:21,0.000,
    Until: 07:23,1.000,
    Until: 08:08,0.048,
    Until: 08:13,1.000,
    Until: 08:51,0.000,
    Until: 08:53,1.000,
    Until: 09:38,0.048,
    Until: 09:43,1.000,
    Until: 12:12,0.000,
    Until: 12:14,1.000,
    Until: 12:59,0.048,
    Until: 13:04,1.000,
    Until: 15:51,0.000,
    Until: 15:53,1.000,
    Until: 16:38,0.048,
    Until: 16:43,1.000,
    Until: 24:00,0.000,
    Through: 12/9,
    For: AllDays,
    Until: 01:15,0.000,
    Until: 01:17,1.000,
    Until: 02:02,0.048,
    Until: 02:07,1.000,
    Until: 02:30,0.000,
    Until: 02:32,1.000,
    Until: 03:17,0.048,
    Until: 03:22,1.000,
    Until: 03:34,0.000,
    Until: 03:36,1.000,
    Until: 04:21,0.048,
    Until: 04:26,1.000,
    Until: 04:27,0.000,
    Until: 04:29,1.000,
    Until: 05:14,0.048,
    Until: 05:19,1.000,
    Until: 07:11,0.000,
    Until: 07:13,1.000,
    Until: 07:58,0.048,
    Until: 08:03,1.000,
    Until: 11:48,0.000,
    Until: 11:50,1.000,
    Until: 12:35,0.048,
    Until: 12:40,1.000,
    Until: 13:12,0.000,
    Until: 13:14,1.000,
    Until: 13:59,0.048,
    Until: 14:04,1.000,
    Until: 17:48,0.000,
    Until: 17:50,1.000,
    Until: 18:35,0.048,
    Until: 18:40,1.000,
    Until: 24:00,0.000,
    Through: 12/10,
    For: AllDays,
    Until: 02:12,0.000,
    Until: 02:14,1.000,
    Until: 02:59,0.048,
    Until: 03:04,1.000,
    Until: 03:16,0.000,
    Until: 03:18,1.000,
    Until: 04:03,0.048,
    Until: 04:08,1.000,
    Until: 04:09,0.000,
    Until: 04:11,1.000,
    Until: 04:56,0.048,
    Until: 05:01,1.000,
    Until: 06:48,0.000,
    Until: 06:50,1.000,
    Until: 07:35,0.048,
    Until: 07:40,1.000,
    Until: 10:17,0.000,
    Until: 10:19,1.000,
    Until: 11:04,0.048,
    Until: 11:09,1.000,
    Until: 13:24,0.000,
    Until: 13:26,1.000,
    Until: 14:11,0.048,
    Until: 14:16,1.000,
    Until: 18:15,0.000,
    Until: 18:17,1.000,
    Until: 19:02,0.048,
    Until: 19:07,1.000,
    Until: 24:00,0.000,
    Through: 12/11,
    For: AllDays,
    Until: 00:10,0.000,
    Until: 00:12,1.000,
    Until: 00:57,0.048,
    Until: 01:02,1.000,
    Until: 01:51,0.000,
    Until: 01:53,1.000,
    Until: 02:38,0.048,
    Until: 02:43,1.000,
    Until: 04:06,0.000,
    Until: 04:08,1.000,
    Until: 04:53,0.048,
    Until: 04:58,1.000,
    Until: 06:30,0.000,
    Until: 06:32,1.000,
    Until: 07:17,0.048,
    Until: 07:22,1.000,
    Until: 11:36,0.000,
    Until: 11:38,1.000,
    Until: 12:23,0.048,
    Until: 12:28,1.000,
    Until: 12:39,0.000,
    Until: 12:41,1.000,
    Until: 13:26,0.048,
    Until: 13:31,1.000,
    Until: 24:00,0.000,
    Through: 12/12,
    For: AllDays,
    Until: 24:00,0.000,
    Through: 12/13,
    For: AllDays,
    Until: 24:00,0.000,
    Through: 12/14,
    For: AllDays,
    Until: 01:21,0.000,
    Until: 01:23,1.000,
    Until: 02:08,0.048,
    Until: 02:13,1.000,
    Until: 02:14,0.000,
    Until: 02:16,1.000,
    Until: 03:01,0.048,
    Until: 03:06,1.000,
    Until: 03:10,0.000,
    Until: 03:12,1.000,
    Until: 03:57,0.048,
    Until: 04:02,1.000,
    Until: 07:53,0.000,
    Until: 07:55,1.000,
    Until: 08:40,0.048,
    Until: 08:45,1.000,
    Until: 12:21,0.000,
    Until: 12:23,1.000,
    Until: 13:08,0.048,
    Until: 13:13,1.000,
    Until: 13:28,0.000,
    Until: 13:30,1.000,
    Until: 14:15,0.048,
    Until: 14:20,1.000,
    Until: 18:41,0.000,
    Until: 18:43,1.000,
    Until: 19:28,0.048,
    Until: 19:33,1.000,
    Until: 24:00,0.000,
    Through: 12/15,
    For: AllDays,
    Until: 02:17,0.000,
    Until: 02:19,1.000,
    Until: 03:04,0.048,
    Until: 03:09,1.000,
    Until: 03:33,0.000,
    Until: 03:35,1.000,
    Until: 04:20,0.048,
    Until: 04:25,1.000,
    Until: 08:23,0.000,
    Until: 08:25,1.000,
    Until: 09:10,0.048,
    Until: 09:15,1.000,
    Until: 11:40,0.000,
    Until: 11:42,1.000,
    Until: 12:27,0.048,
    Until: 12:32,1.000,
    Until: 24:00,0.000,
    Through: 12/16,
    For: AllDays,
    Until: 00:57,0.000,
    Until: 00:59,1.000,
    Until: 01:44,0.048,
    Until: 01:49,1.000,
    Until: 01:50,0.000,
    Until: 01:52,1.000,
    Until: 02:37,0.048,
    Until: 02:42,1.000,
    Until: 02:43,0.000,
    Until: 02:45,1.000,
    Until: 03:30,0.048,
    Until: 03:35,1.000,
    Until: 07:06,0.000,
    Until: 07:08,1.000,
    Until: 07:53,0.048,
    Until: 07:58,1.000,
    Until: 12:43,0.000,
    Until: 12:45,1.000,
    Until: 13:30,0.048,
    Until: 13:35,1.000,
    Until: 24:00,0.000,
    Through: 12/17,
    For: AllDays,
    Until: 01:53,0.000,
    Until: 01:55,1.000,
    Until: 02:40,0.048,
    Until: 02:45,1.000,
    Until: 02:46,0.000,
    Until: 02:48,1.000,
    Until: 03:33,0.048,
    Until: 03:38,1.000,
    Until: 06:47,0.000,
    Until: 06:49,1.000,
    Until: 07:34,0.048,
    Until: 07:39,1.000,
    Until: 08:18,0.000,
    Until: 08:20,1.000,
    Until: 09:05,0.048,
    Until: 09:10,1.000,
    Until: 12:23,0.000,
    Until: 12:25,1.000,
    Until: 13:10,0.048,
    Until: 13:15,1.000,
    Until: 24:00,0.000,
    Through: 12/18,
    For: AllDays,
    Until: 01:27,0.000,
    Until: 01:29,1.000,
    Until: 02:14,0.048,
    Until: 02:19,1.000,
    Until: 02:31,0.000,
    Until: 02:33,1.000,
    Until: 03:18,0.048,
    Until: 03:23,1.000,
    Until: 07:40,0.000,
    Until: 07:42,1.000,
    Until: 08:27,0.048,
    Until: 08:32,1.000,
    Until: 10:06,0.000,
    Until: 10:08,1.000,
    Until: 10:53,0.048,
    Until: 10:58,1.000,
    Until: 24:00,0.000,
    Through: 12/19,
    For: AllDays,
    Until: 24:00,0.000,
    Through: 12/20,
    For: AllDays,
    Until: 24:00,0.000,
    Through: 12/21,
    For: AllDays,
    Until: 00:48,0.000,
    Until: 00:50,1.000,
    Until: 01:35,0.048,
    Until: 01:40,1.000,
    Until: 01:42,0.000,
    Until: 01:44,1.000,
    Until: 02:29,0.048,
    Until: 02:34,1.000,
    Until: 07:10,0.000,
    Until: 07:12,1.000,
    Until: 07:57,0.048,
    Until: 08:02,1.000,
    Until: 08:06,0.000,
    Until: 08:08,1.000,
    Until: 08:53,0.048,
    Until: 08:58,1.000,
    Until: 12:58,0.000,
    Until: 13:00,1.000,
    Until: 13:45,0.048,
    Until: 13:50,1.000,
    Until: 13:51,0.000,
    Until: 13:53,1.000,
    Until: 14:38,0.048,
    Until: 14:43,1.000,
    Until: 17:41,0.000,
    Until: 17:43,1.000,
    Until: 18:28,0.048,
    Until: 18:33,1.000,
    Until: 24:00,0.000,
    Through: 12/22,
    For: AllDays,
    Until: 02:20,0.000,
    Until: 02:22,1.000,
    Until: 03:07,0.048,
    Until: 03:12,1.000,
    Until: 03:13,0.000,
    Until: 03:15,1.000,
    Until: 04:00,0.048,
    Until: 04:05,1.000,
    Until: 04:06,0.000,
    Until: 04:08,1.000,
    Until: 04:53,0.048,
    Until: 04:58,1.000,
    Until: 06:31,0.000,
    Until: 06:33,1.000,
    Until: 07:18,0.048,
    Until: 07:23,1.000,
    Until: 08:20,0.000,
    Until: 08:22,1.000,
    Until: 09:07,0.048,
    Until: 09:12,1.000,
    Until: 12:49,0.000,
    Until: 12:51,1.000,
    Until: 13:36,0.048,
    Until: 13:41,1.000,
    Until: 13:43,0.000,
    Until: 13:45,1.000,
    Until: 14:30,0.048,
    Until: 14:35,1.000,
    Until: 17:12,0.000,
    Until: 17:14,1.000,
    Until: 17:59,0.048,
    Until: 18:04,1.000,
    Until: 24:00,0.000,
    Through: 12/23,
    For: AllDays,
    Until: 01:28,0.000,
    Until: 01:30,1.000,
    Until: 02:15,0.048,
    Until: 02:20,1.000,
    Until: 02:22,0.000,
    Until: 02:24,1.000,
    Until: 03:09,0.048,
    Until: 03:14,1.000,
    Until: 05:47,0.000,
    Until: 05:49,1.000,
    Until: 06:34,0.048,
    Until: 06:39,1.000,
    Until: 11:19,0.000,
    Until: 11:21,1.000,
    Until: 12:06,0.048,
    Until: 12:11,1.000,
    Until: 12:51,0.000,
    Until: 12:53,1.000,
    Until: 13:38,0.048,
    Until: 13:43,1.000,
    Until: 24:00,0.000,
    Through: 12/24,
    For: AllDays,
    Until: 02:03,0.000,
    Until: 02:05,1.000,
    Until: 02:50,0.048,
    Until: 02:55,1.000,
    Until: 02:56,0.000,
    Until: 02:58,1.000,
    Until: 03:43,0.048,
    Until: 03:48,1.000,
    Until: 04:04,0.000,
    Until: 04:06,1.000,
    Until: 04:51,0.048,
    Until: 04:56,1.000,
    Until: 06:48,0.000,
    Until: 06:50,1.000,
    Until: 07:35,0.048,
    Until: 07:40,1.000,
    Until: 12:12,0.000,
    Until: 12:14,1.000,
    Until: 12:59,0.048,
    Until: 13:04,1.000,
    Until: 24:00,0.000,
    Through: 12/25,
    For: AllDays,
    Until: 02:58,0.000,
    Until: 03:00,1.000,
    Until: 03:45,0.048,
    Until: 03:50,1.000,
    Until: 03:51,0.000,
    Until: 03:53,1.000,
    Until: 04:38,0.048,
    Until: 04:43,1.000,
    Until: 04:44,0.000,
    Until: 04:46,1.000,
    Until: 05:31,0.048,
    Until: 05:36,1.000,
    Until: 05:43,0.000,
    Until: 05:45,1.000,
    Until: 06:30,0.048,
    Until: 06:35,1.000,
    Until: 08:11,0.000,
    Until: 08:13,1.000,
    Until: 08:58,0.048,
    Until: 09:03,1.000,
    Until: 10:34,0.000,
    Until: 10:36,1.000,
    Until: 11:21,0.048,
    Until: 11:26,1.000,
    Until: 13:16,0.000,
    Until: 13:18,1.000,
    Until: 14:03,0.048,
    Until: 14:08,1.000,
    Until: 24:00,0.000,
    Through: 12/26,
    For: AllDays,
    Until: 24:00,0.000,
    Through: 12/27,
    For: AllDays,
    Until: 24:00,0.000,
    Through: 12/28,
    For: AllDays,
    Until: 01:12,0.000,
    Until: 01:14,1.000,
    Until: 01:59,0.048,
    Until: 02:04,1.000,
    Until: 02:05,0.000,
    Until: 02:07,1.000,
    Until: 02:52,0.048,
    Until: 02:57,1.000,
    Until: 03:11,0.000,
    Until: 03:13,1.000,
    Until: 03:58,0.048,
    Until: 04:03,1.000,
    Until: 11:53,0.000,
    Until: 11:55,1.000,
    Until: 12:40,0.048,
    Until: 12:45,1.000,
    Until: 13:03,0.000,
    Until: 13:05,1.000,
    Until: 13:50,0.048,
    Until: 13:55,1.000,
    Until: 24:00,0.000,
    Through: 12/29,
    For: AllDays,
    Until: 01:57,0.000,
    Until: 01:59,1.000,
    Until: 02:44,0.048,
    Until: 02:49,1.000,
    Until: 03:05,0.000,
    Until: 03:07,1.000,
    Until: 03:52,0.048,
    Until: 03:57,1.000,
    Until: 04:06,0.000,
    Until: 04:08,1.000,
    Until: 04:53,0.048,
    Until: 04:58,1.000,
    Until: 06:02,0.000,
    Until: 06:04,1.000,
    Until: 06:49,0.048,
    Until: 06:54,1.000,
    Until: 08:19,0.000,
    Until: 08:21,1.000,
    Until: 09:06,0.048,
    Until: 09:11,1.000,
    Until: 11:56,0.000,
    Until: 11:58,1.000,
    Until: 12:43,0.048,
    Until: 12:48,1.000,
    Until: 17:32,0.000,
    Until: 17:34,1.000,
    Until: 18:19,0.048,
    Until: 18:24,1.000,
    Until: 24:00,0.000,
    Through: 12/30,
    For: AllDays,
    Until: 00:34,0.000,
    Until: 00:36,1.000,
    Until: 01:21,0.048,
    Until: 01:26,1.000,
    Until: 01:48,0.000,
    Until: 01:50,1.000,
    Until: 02:35,0.048,
    Until: 02:40,1.000,
    Until: 02:42,0.000,
    Until: 02:44,1.000,
    Until: 03:29,0.048,
    Until: 03:34,1.000,
    Until: 03:35,0.000,
    Until: 03:37,1.000,
    Until: 04:22,0.048,
    Until: 04:27,1.000,
    Until: 07:45,0.000,
    Until: 07:47,1.000,
    Until: 08:32,0.048,
    Until: 08:37,1.000,
    Until: 12:04,0.000,
    Until: 12:06,1.000,
    Until: 12:51,0.048,
    Until: 12:56,1.000,
    Until: 24:00,0.000,
    Through: 12/31,
    For: AllDays,
    Until: 00:38,0.000,
    Until: 00:40,1.000,
    Until: 01:25,0.048,
    Until: 01:30,1.000,
    Until: 02:54,0.000,
    Until: 02:56,1.000,
    Until: 03:41,0.048,
    Until: 03:46,1.000,
    Until: 03:47,0.000,
    Until: 03:49,1.000,
    Until: 04:34,0.048,
    Until: 04:39,1.000,
    Until: 07:23,0.000,
    Until: 07:25,1.000,
    Until: 08:10,0.048,
    Until: 08:15,1.000,
    Until: 09:03,0.000,
    Until: 09:05,1.000,
    Until: 09:50,0.048,
    Until: 09:55,1.000,
    Until: 11:16,0.000,
    Until: 11:18,1.000,
    Until: 12:03,0.048,
    Until: 12:08,1.000,
    Until: 12:09,0.000,
    Until: 12:11,1.000,
    Until: 12:56,0.048,
    Until: 13:01,1.000,
    Until: 24:00,0.000,
    Through: 1/2,
    For: AllDays,
    Until: 24:00,0.000;

Schedule:Compact,
    AB_1_Tor_Schedule,       !- Name
    Fraction,                !- Schedule Type Limits Name
    Through: 1/1,
    For: AllDays,
    Until: 24:00,0.000,
    Through: 1/2,
    For: AllDays,
    Until: 24:00,0.000,
    Through: 1/3,
    For: AllDays,
    Until: 24:00,0.000,
    Through: 1/4,
    For: AllDays,
    Until: 24:00,0.000,
    Through: 1/5,
    For: AllDays,
    Until: 07:50,0.000,
    Until: 07:52,1.000,
    Until: 08:37,0.048,
    Until: 08:42,1.000,
    Until: 10:02,0.000,
    Until: 10:04,1.000,
    Until: 10:49,0.048,
    Until: 10:54,1.000,
    Until: 11:13,0.000,
    Until: 11:15,1.000,
    Until: 12:00,0.048,
    Until: 12:05,1.000,
    Until: 13:16,0.000,
    Until: 13:18,1.000,
    Until: 14:03,0.048,
    Until: 14:08,1.000,
    Until: 16:10,0.000,
    Until: 16:12,1.000,
    Until: 16:57,0.048,
    Until: 17:02,1.000,
    Until: 17:46,0.000,
    Until: 17:48,1.000,
    Until: 18:33,0.048,
    Until: 18:38,1.000,
    Until: 21:31,0.000,
    Until: 21:33,1.000,
    Until: 22:18,0.048,
    Until: 22:23,1.000,
    Until: 23:25,0.000,
    Until: 23:27,1.000,
    Until: 24:00,0.048,
    Through: 1/6,
    For: AllDays,
    Until: 00:12,0.048,
    Until: 00:17,1.000,
    Until: 13:16,0.000,
    Until: 13:18,1.000,
    Until: 14:03,0.048,
    Until: 14:08,1.000,
    Until: 20:21,0.000,
    Until: 20:23,1.000,
    Until: 21:08,0.048,
    Until: 21:13,1.000,
    Until: 21:15,0.000,
    Until: 21:17,1.000,
    Until: 22:02,0.048,
    Until: 22:07,1.000,
    Until: 24:00,0.000,
    Through: 1/7,
    For: AllDays,
    Until: 12:20,0.000,
    Until: 12:22,1.000,
    Until: 13:07,0.048,
    Until: 13:12,1.000,
    Until: 16:42,0.000,
    Until: 16:44,1.000,
    Until: 17:29,0.048,
    Until: 17:34,1.000,
    Until: 20:13,0.000,
    Until: 20:15,1.000,
    Until: 21:00,0.048,
    Until: 21:05,1.000,
    Until: 21:53,0.000,
    Until: 21:55,1.000,
    Until: 22:40,0.048,
    Until: 22:45,1.000,
    Until: 24:00,0.000,
    Through: 1/8,
    For: AllDays,
    Until: 09:46,0.000,
    Until: 09:48,1.000,
    Until: 10:33,0.048,
    Until: 10:38,1.000,
    Until: 11:34,0.000,
    Until: 11:36,1.000,
    Until: 12:21,0.048,
    Until: 12:26,1.000,
    Until: 12:30,0.000,
    Until: 12:32,1.000,
    Until: 13:17,0.048,
    Until: 13:22,1.000,
    Until: 19:33,0.000,
    Until: 19:35,1.000,
    Until: 20:20,0.048,
    Until: 20:25,1.000,
    Until: 21:26,0.000,
    Until: 21:28,1.000,
    Until: 22:13,0.048,
    Until: 22:18,1.000,
    Until: 22:44,0.000,
    Until: 22:46,1.000,
    Until: 23:31,0.048,
    Until: 23:36,1.000,
    Until: 24:00,0.000,
    Through: 1/9,
    For: AllDays,
    Until: 07:34,0.000,
    Until: 07:36,1.000,
    Until: 08:21,0.048,
    Until: 08:26,1.000,
    Until: 13:14,0.000,
    Until: 13:16,1.000,
    Until: 14:01,0.048,
    Until: 14:06,1.000,
    Until: 16:58,0.000,
    Until: 17:00,1.000,
    Until: 17:45,0.048,
    Until: 17:50,1.000,
    Until: 18:15,0.000,
    Until: 18:17,1.000,
    Until: 19:02,0.048,
    Until: 19:07,1.000,
    Until: 21:26,0.000,
    Until: 21:28,1.000,
    Until: 22:13,0.048,
    Until: 22:18,1.000,
    Until: 22:19,0.000,
    Until: 22:21,1.000,
    Until: 23:06,0.048,
    Until: 23:11,1.000,
    Until: 23:12,0.000,
    Until: 23:14,1.000,
    Until: 23:59,0.048,
    Until: 24:00,1.000,
    Through: 1/10,
    For: AllDays,
    Until: 00:04,1.000,
    Until: 24:00,0.000,
    Through: 1/11,
    For: AllDays,
    Until: 24:00,0.000,
    Through: 1/12,
    For: AllDays,
    Until: 12:10,0.000,
    Until: 12:12,1.000,
    Until: 12:57,0.048,
    Until: 13:02,1.000,
    Until: 16:00,0.000,
    Until: 16:02,1.000,
    Until: 16:47,0.048,
    Until: 16:52,1.000,
    Until: 18:28,0.000,
    Until: 18:30,1.000,
    Until: 19:15,0.048,
    Until: 19:20,1.000,
    Until: 20:49,0.000,
    Until: 20:51,1.000,
    Until: 21:36,0.048,
    Until: 21:41,1.000,
    Until: 21:42,0.000,
    Until: 21:44,1.000,
    Until: 22:29,0.048,
    Until: 22:34,1.000,
    Until: 23:45,0.000,
    Until: 23:47,1.000,
    Until: 24:00,0.048,
    Through: 1/13,
    For: AllDays,
    Until: 00:32,0.048,
    Until: 00:37,1.000,
    Until: 11:22,0.000,
    Until: 11:24,1.000,
    Until: 12:09,0.048,
    Until: 12:14,1.000,
    Until: 12:58,0.000,
    Until: 13:00,1.000,
    Until: 13:45,0.048,
    Until: 13:50,1.000,
    Until: 13:55,0.000,
    Until: 13:57,1.000,
    Until: 14:42,0.048,
    Until: 14:47,1.000,
    Until: 15:56,0.000,
    Until: 15:58,1.000,
    Until: 16:43,0.048,
    Until: 16:48,1.000,
    Until: 17:41,0.000,
    Until: 17:43,1.000,
    Until: 18:28,0.048,
    Until: 18:33,1.000,
    Until: 21:02,0.000,
    Until: 21:04,1.000,
    Until: 21:49,0.048,
    Until: 21:54,1.000,
    Until: 21:55,0.000,
    Until: 21:57,1.000,
    Until: 22:42,0.048,
    Until: 22:47,1.000,
    Until: 23:22,0.000,
    Until: 23:24,1.000,
    Until: 24:00,0.048,
    Through: 1/14,
    For: AllDays,
    Until: 00:09,0.048,
    Until: 00:14,1.000,
    Until: 08:49,0.000,
    Until: 08:51,1.000,
    Until: 09:36,0.048,
    Until: 09:41,1.000,
    Until: 11:56,0.000,
    Until: 11:58,1.000,
    Until: 12:43,0.048,
    Until: 12:48,1.000,
    Until: 13:49,0.000,
    Until: 13:51,1.000,
    Until: 14:36,0.048,
    Until: 14:41,1.000,
    Until: 17:17,0.000,
    Until: 17:19,1.000,
    Until: 18:04,0.048,
    Until: 18:09,1.000,
    Until: 21:42,0.000,
    Until: 21:44,1.000,
    Until: 22:29,0.048,
    Until: 22:34,1.000,
    Until: 22:35,0.000,
    Until: 22:37,1.000,
    Until: 23:22,0.048,
    Until: 23:27,1.000,
    Until: 23:28,0.000,
    Until: 23:30,1.000,
    Until: 24:00,0.048,
    Through: 1/15,
    For: AllDays,
    Until: 00:15,0.048,
    Until: 00:20,1.000,
    Until: 10:39,0.000,
    Until: 10:41,1.000,
    Until: 11:26,0.048,
    Until: 11:31,1.000,
    Until: 11:56,0.000,
    Until: 11:58,1.000,
    Until: 12:43,0.048,
    Until: 12:48,1.000,
    Until: 15:45,0.000,
    Until: 15:47,1.000,
    Until: 16:32,0.048,
    Until: 16:37,1.000,
    Until: 19:51,0.000,
    Until: 19:53,1.000,
    Until: 20:38,0.048,
    Until: 20:43,1.000,
    Until: 22:06,0.000,
    Until: 22:08,1.000,
    Until: 22:53,0.048,
    Until: 22:58,1.000,
    Until: 23:27,0.000,
    Until: 23:29,1.000,
    Until: 24:00,0.048,
    Through: 1/16,
    For: AllDays,
    Until: 00:14,0.048,
    Until: 00:19,1.000,
    Until: 08:20,0.000,
    Until: 08:22,1.000,
    Until: 09:07,0.048,
    Until: 09:12,1.000,
    Until: 10:59,0.000,
    Until: 11:01,1.000,
    Until: 11:46,0.048,
    Until: 11:51,1.000,
    Until: 12:32,0.000,
    Until: 12:34,1.000,
    Until: 13:19,0.048,
    Until: 13:24,1.000,
    Until: 22:11,0.000,
    Until: 22:13,1.000,
    Until: 22:58,0.048,
    Until: 23:03,1.000,
    Until: 23:04,0.000,
    Until: 23:06,1.000,
    Until: 23:51,0.048,
    Until: 23:56,1.000,
    Until: 24:00,0.000,
    Through: 1/17,
    For: AllDays,
    Until: 24:00,0.000,
    Through: 1/18,
    For: AllDays,
    Until: 24:00,0.000,
    Through: 1/19,
    For: AllDays,
    Until: 06:29,0.000,
    Until: 06:31,1.000,
    Until: 07:16,0.048,
    Until: 07:21,1.000,
    Until: 11:01,0.000,
    Until: 11:03,1.000,
    Until: 11:48,0.048,
    Until: 11:53,1.000,
    Until: 16:45,0.000,
    Until: 16:47,1.000,
    Until: 17:32,0.048,
    Until: 17:37,1.000,
    Until: 20:20,0.000,
    Until: 20:22,1.000,
    Until: 21:07,0.048,
    Until: 21:12,1.000,
    Until: 21:57,0.000,
    Until: 21:59,1.000,
    Until: 22:44,0.048,
    Until: 22:49,1.000,
    Until: 24:00,0.000,
    Through: 1/20,
    For: AllDays,
    Until: 11:52,0.000,
    Until: 11:54,1.000,
    Until: 12:39,0.048,
    Until: 12:44,1.000,
    Until: 15:32,0.000,
    Until: 15:34,1.000,
    Until: 16:19,0.048,
    Until: 16:24,1.000,
    Until: 22:02,0.000,
    Until: 22:04,1.000,
    Until: 22:49,0.048,
    Until: 22:54,1.000,
    Until: 23:18,0.000,
    Until: 23:20,1.000,
    Until: 24:00,0.048,
    Through: 1/21,
    For: AllDays,
    Until: 00:05,0.048,
    Until: 00:10,1.000,
    Until: 05:52,0.000,
    Until: 05:54,1.000,
    Until: 06:39,0.048,
    Until: 06:44,1.000,
    Until: 12:08,0.000,
    Until: 12:10,1.000,
    Until: 12:55,0.048,
    Until: 13:00,1.000,
    Until: 17:41,0.000,
    Until: 17:43,1.000,
    Until: 18:28,0.048,
    Until: 18:33,1.000,
    Until: 21:53,0.000,
    Until: 21:55,1.000,
    Until: 22:40,0.048,
    Until: 22:45,1.000,
    Until: 22:46,0.000,
    Until: 22:48,1.000,
    Until: 23:33,0.048,
    Until: 23:38,1.000,
    Until: 24:00,0.000,
    Through: 1/22,
    For: AllDays,
    Until: 09:14,0.000,
    Until: 09:16,1.000,
    Until: 10:01,0.048,
    Until: 10:06,1.000,
    Until: 12:35,0.000,
    Until: 12:37,1.000,
    Until: 13:22,0.048,
    Until: 13:27,1.000,
    Until: 15:41,0.000,
    Until: 15:43,1.000,
    Until: 16:28,0.048,
    Until: 16:33,1.000,
    Until: 16:52,0.000,
    Until: 16:54,1.000,
    Until: 17:39,0.048,
    Until: 17:44,1.000,
    Until: 20:21,0.000,
    Until: 20:23,1.000,
    Until: 21:08,0.048,
    Until: 21:13,1.000,
    Until: 21:33,0.000,
    Until: 21:35,1.000,
    Until: 22:20,0.048,
    Until: 22:25,1.000,
    Until: 22:55,0.000,
    Until: 22:57,1.000,
    Until: 23:42,0.048,
    Until: 23:47,1.000,
    Until: 24:00,0.000,
    Through: 1/23,
    For: AllDays,
    Until: 06:28,0.000,
    Until: 06:30,1.000,
    Until: 07:15,0.048,
    Until: 07:20,1.000,
    Until: 12:16,0.000,
    Until: 12:18,1.000,
    Until: 13:03,0.048,
    Until: 13:08,1.000,
    Until: 15:07,0.000,
    Until: 15:09,1.000,
    Until: 15:54,0.048,
    Until: 15:59,1.000,
    Until: 21:16,0.000,
    Until: 21:18,1.000,
    Until: 22:03,0.048,
    Until: 22:08,1.000,
    Until: 22:56,0.000,
    Until: 22:58,1.000,
    Until: 23:43,0.048,
    Until: 23:48,1.000,
    Until: 24:00,0.000,
    Through: 1/24,
    For: AllDays,
    Until: 24:00,0.000,
    Through: 1/25,
    For: AllDays,
    Until: 24:00,0.000,
    Through: 1/26,
    For: AllDays,
    Until: 10:22,0.000,
    Until: 10:24,1.000,
    Until: 11:09,0.048,
    Until: 11:14,1.000,
    Until: 12:15,0.000,
    Until: 12:17,1.000,
    Until: 13:02,0.048,
    Until: 13:07,1.000,
    Until: 16:59,0.000,
    Until: 17:01,1.000,
    Until: 17:46,0.048,
    Until: 17:51,1.000,
    Until: 20:44,0.000,
    Until: 20:46,1.000,
    Until: 21:31,0.048,
    Until: 21:36,1.000,
    Until: 21:56,0.000,
    Until: 21:58,1.000,
    Until: 22:43,0.048,
    Until: 22:48,1.000,
    Until: 22:49,0.000,
    Until: 22:51,1.000,
    Until: 23:36,0.048,
    Until: 23:41,1.000,
    Until: 24:00,0.000,
    Through: 1/27,
    For: AllDays,
    Until: 11:08,0.000,
    Until: 11:10,1.000,
    Until: 11:55,0.048,
    Until: 12:00,1.000,
    Until: 20:53,0.000,
    Until: 20:55,1.000,
    Until: 21:40,0.048,
    Until: 21:45,1.000,
    Until: 22:25,0.000,
    Until: 22:27,1.000,
    Until: 23:12,0.048,
    Until: 23:17,1.000,
    Until: 24:00,0.000,
    Through: 1/28,
    For: AllDays,
    Until: 06:58,0.000,
    Until: 07:00,1.000,
    Until: 07:45,0.048,
    Until: 07:50,1.000,
    Until: 11:27,0.000,
    Until: 11:29,1.000,
    Until: 12:14,0.048,
    Until: 12:19,1.000,
    Until: 13:03,0.000,
    Until: 13:05,1.000,
    Until: 13:50,0.048,
    Until: 13:55,1.000,
    Until: 16:24,0.000,
    Until: 16:26,1.000,
    Until: 17:11,0.048,
    Until: 17:16,1.000,
    Until: 19:49,0.000,
    Until: 19:51,1.000,
    Until: 20:36,0.048,
    Until: 20:41,1.000,
    Until: 20:42,0.000,
    Until: 20:44,1.000,
    Until: 21:29,0.048,
    Until: 21:34,1.000,
    Until: 22:24,0.000,
    Until: 22:26,1.000,
    Until: 23:11,0.048,
    Until: 23:16,1.000,
    Until: 24:00,0.000,
    Through: 1/29,
    For: AllDays,
    Until: 08:13,0.000,
    Until: 08:15,1.000,
    Until: 09:00,0.048,
    Until: 09:05,1.000,
    Until: 10:34,0.000,
    Until: 10:36,1.000,
    Until: 11:21,0.048,
    Until: 11:26,1.000,
    Until: 18:51,0.000,
    Until: 18:53,1.000,
    Until: 19:38,0.048,
    Until: 19:43,1.000,
    Until: 21:57,0.000,
    Until: 21:59,1.000,
    Until: 22:44,0.048,
    Until: 22:49,1.000,
    Until: 22:50,0.000,
    Until: 22:52,1.000,
    Until: 23:37,0.048,
    Until: 23:42,1.000,
    Until: 24:00,0.000,
    Through: 1/30,
    For: AllDays,
    Until: 05:03,0.000,
    Until: 05:05,1.000,
    Until: 05:50,0.048,
    Until: 05:55,1.000,
    Until: 12:35,0.000,
    Until: 12:37,1.000,
    Until: 13:22,0.048,
    Until: 13:27,1.000,
    Until: 15:27,0.000,
    Until: 15:29,1.000,
    Until: 16:14,0.048,
    Until: 16:19,1.000,
    Until: 17:17,0.000,
    Until: 17:19,1.000,
    Until: 18:04,0.048,
    Until: 18:09,1.000,
    Until: 20:53,0.000,
    Until: 20:55,1.000,
    Until: 21:40,0.048,
    Until: 21:45,1.000,
    Until: 22:23,0.000,
    Until: 22:25,1.000,
    Until: 23:10,0.048,
    Until: 23:15,1.000,
    Until: 23:16,0.000,
    Until: 23:18,1.000,
    Until: 24:00,0.048,
    Through: 1/31,
    For: AllDays,
    Until: 00:03,0.048,
    Until: 00:08,1.000,
    Until: 24:00,0.000,
    Through: 2/1,
    For: AllDays,
    Until: 24:00,0.000,
    Through: 2/2,
    For: AllDays,
    Until: 08:26,0.000,
    Until: 08:28,1.000,
    Until: 09:13,0.048,
    Until: 09:18,1.000,
    Until: 12:01,0.000,
    Until: 12:03,1.000,
    Until: 12:48,0.048,
    Until: 12:53,1.000,
    Until: 12:54,0.000,
    Until: 12:56,1.000,
    Until: 13:41,0.048,
    Until: 13:46,1.000,
    Until: 16:46,0.000,
    Until: 16:48,1.000,
    Until: 17:33,0.048,
    Until: 17:38,1.000,
    Until: 19:46,0.000,
    Until: 19:48,1.000,
    Until: 20:33,0.048,
    Until: 20:38,1.000,
    Until: 20:46,0.000,
    Until: 20:48,1.000,
    Until: 21:33,0.048,
    Until: 21:38,1.000,
    Until: 21:57,0.000,
    Until: 21:59,1.000,
    Until: 22:44,0.048,
    Until: 22:49,1.000,
    Until: 24:00,0.000,
    Through: 2/3,
    For: AllDays,
    Until: 09:43,0.000,
    Until: 09:45,1.000,
    Until: 10:30,0.048,
    Until: 10:35,1.000,
    Until: 11:19,0.000,
    Until: 11:21,1.000,
    Until: 12:06,0.048,
    Until: 12:11,1.000,
    Until: 14:53,0.000,
    Until: 14:55,1.000,
    Until: 15:40,0.048,
    Until: 15:45,1.000,
    Until: 20:38,0.000,
    Until: 20:40,1.000,
    Until: 21:25,0.048,
    Until: 21:30,1.000,
    Until: 21:58,0.000,
    Until: 22:00,1.000,
    Until: 22:45,0.048,
    Until: 22:50,1.000,
    Until: 22:51,0.000,
    Until: 22:53,1.000,
    Until: 23:38,0.048,
    Until: 23:43,1.000,
    Until: 24:00,0.000,
    Through: 2/4,
    For: AllDays,
    Until: 08:05,0.000,
    Until: 08:07,1.000,
    Until: 08:52,0.048,
    Until: 08:57,1.000,
    Until: 11:39,0.000,
    Until: 11:41,1.000,
    Until: 12:26,0.048,
    Until: 12:31,1.000,
    Until: 13:35,0.000,
    Until: 13:37,1.000,
    Until: 14:22,0.048,
    Until: 14:27,1.000,
    Until: 18:23,0.000,
    Until: 18:25,1.000,
    Until: 19:10,0.048,
    Until: 19:15,1.000,
    Until: 21:21,0.000,
    Until: 21:23,1.000,
    Until: 22:08,0.048,
    Until: 22:13,1.000,
    Until: 22:23,0.000,
    Until: 22:25,1.000,
    Until: 23:10,0.048,
    Until: 23:15,1.000,
    Until: 23:20,0.000,
    Until: 23:22,1.000,
    Until: 24:00,0.048,
    Through: 2/5,
    For: AllDays,
    Until: 00:07,0.048,
    Until: 00:12,1.000,
    Until: 12:29,0.000,
    Until: 12:31,1.000,
    Until: 13:16,0.048,
    Until: 13:21,1.000,
    Until: 15:51,0.000,
    Until: 15:53,1.000,
    Until: 16:38,0.048,
    Until: 16:43,1.000,
    Until: 20:48,0.000,
    Until: 20:50,1.000,
    Until: 21:35,0.048,
    Until: 21:40,1.000,
    Until: 21:59,0.000,
    Until: 22:01,1.000,
    Until: 22:46,0.048,
    Until: 22:51,1.000,
    Until: 24:00,0.000,
    Through: 2/6,
    For: AllDays,
    Until: 11:31,0.000,
    Until: 11:33,1.000,
    Until: 12:18,0.048,
    Until: 12:23,1.000,
    Until: 16:14,0.000,
    Until: 16:16,1.000,
    Until: 17:01,0.048,
    Until: 17:06,1.000,
    Until: 23:07,0.000,
    Until: 23:09,1.000,
    Until: 23:54,0.048,
    Until: 23:59,1.000,
    Until: 24:00,0.000,
    Through: 2/7,
    For: AllDays,
    Until: 24:00,0.000,
    Through: 2/8,
    For: AllDays,
    Until: 24:00,0.000,
    Through: 2/9,
    For: AllDays,
    Until: 11:06,0.000,
    Until: 11:08,1.000,
    Until: 11:53,0.048,
    Until: 11:58,1.000,
    Until: 13:22,0.000,
    Until: 13:24,1.000,
    Until: 14:09,0.048,
    Until: 14:14,1.000,
    Until: 16:52,0.000,
    Until: 16:54,1.000,
    Until: 17:39,0.048,
    Until: 17:44,1.000,
    Until: 19:34,0.000,
    Until: 19:36,1.000,
    Until: 20:21,0.048,
    Until: 20:26,1.000,
    Until: 22:06,0.000,
    Until: 22:08,1.000,
    Until: 22:53,0.048,
    Until: 22:58,1.000,
    Until: 23:02,0.000,
    Until: 23:04,1.000,
    Until: 23:49,0.048,
    Until: 23:54,1.000,
    Until: 24:00,0.000,
    Through: 2/10,
    For: AllDays,
    Until: 10:15,0.000,
    Until: 10:17,1.000,
    Until: 11:02,0.048,
    Until: 11:07,1.000,
    Until: 11:40,0.000,
    Until: 11:42,1.000,
    Until: 12:27,0.048,
    Until: 12:32,1.000,
    Until: 16:17,0.000,
    Until: 16:19,1.000,
    Until: 17:04,0.048,
    Until: 17:09,1.000,
    Until: 20:29,0.000,
    Until: 20:31,1.000,
    Until: 21:16,0.048,
    Until: 21:21,1.000,
    Until: 22:05,0.000,
    Until: 22:07,1.000,
    Until: 22:52,0.048,
    Until: 22:57,1.000,
    Until: 24:00,0.000,
    Through: 2/11,
    For: AllDays,
    Until: 12:52,0.000,
    Until: 12:54,1.000,
    Until: 13:39,0.048,
    Until: 13:44,1.000,
    Until: 13:54,0.000,
    Until: 13:56,1.000,
    Until: 14:41,0.048,
    Until: 14:46,1.000,
    Until: 21:36,0.000,
    Until: 21:38,1.000,
    Until: 22:23,0.048,
    Until: 22:28,1.000,
    Until: 22:32,0.000,
    Until: 22:34,1.000,
    Until: 23:19,0.048,
    Until: 23:24,1.000,
    Until: 24:00,0.000,
    Through: 2/12,
    For: AllDays,
    Until: 10:36,0.000,
    Until: 10:38,1.000,
    Until: 11:23,0.048,
    Until: 11:28,1.000,
    Until: 18:11,0.000,
    Until: 18:13,1.000,
    Until: 18:58,0.048,
    Until: 19:03,1.000,
    Until: 19:29,0.000,
    Until: 19:31,1.000,
    Until: 20:16,0.048,
    Until: 20:21,1.000,
    Until: 20:58,0.000,
    Until: 21:00,1.000,
    Until: 21:45,0.048,
    Until: 21:50,1.000,
    Until: 22:27,0.000,
    Until: 22:29,1.000,
    Until: 23:14,0.048,
    Until: 23:19,1.000,
    Until: 24:00,0.000,
    Through: 2/13,
    For: AllDays,
    Until: 10:25,0.000,
    Until: 10:27,1.000,
    Until: 11:12,0.048,
    Until: 11:17,1.000,
    Until: 12:38,0.000,
    Until: 12:40,1.000,
    Until: 13:25,0.048,
    Until: 13:30,1.000,
    Until: 16:25,0.000,
    Until: 16:27,1.000,
    Until: 17:12,0.048,
    Until: 17:17,1.000,
    Until: 17:18,0.000,
    Until: 17:20,1.000,
    Until: 18:05,0.048,
    Until: 18:10,1.000,
    Until: 20:43,0.000,
    Until: 20:45,1.000,
    Until: 21:30,0.048,
    Until: 21:35,1.000,
    Until: 21:44,0.000,
    Until: 21:46,1.000,
    Until: 22:31,0.048,
    Until: 22:36,1.000,
    Until: 24:00,0.000,
    Through: 2/14,
    For: AllDays,
    Until: 24:00,0.000,
    Through: 2/15,
    For: AllDays,
    Until: 24:00,0.000,
    Through: 2/16,
    For: AllDays,
    Until: 13:13,0.000,
    Until: 13:15,1.000,
    Until: 14:00,0.048,
    Until: 14:05,1.000,
    Until: 15:20,0.000,
    Until: 15:22,1.000,
    Until: 16:07,0.048,
    Until: 16:12,1.000,
    Until: 16:40,0.000,
    Until: 16:42,1.000,
    Until: 17:27,0.048,
    Until: 17:32,1.000,
    Until: 21:42,0.000,
    Until: 21:44,1.000,
    Until: 22:29,0.048,
    Until: 22:34,1.000,
    Until: 22:44,0.000,
    Until: 22:46,1.000,
    Until: 23:31,0.048,
    Until: 23:36,1.000,
    Until: 24:00,0.000,
    Through: 2/17,
    For: AllDays,
    Until: 05:24,0.000,
    Until: 05:26,1.000,
    Until: 06:11,0.048,
    Until: 06:16,1.000,
    Until: 12:31,0.000,
    Until: 12:33,1.000,
    Until: 13:18,0.048,
    Until: 13:23,1.000,
    Until: 15:31,0.000,
    Until: 15:33,1.000,
    Until: 16:18,0.048,
    Until: 16:23,1.000,
    Until: 20:28,0.000,
    Until: 20:30,1.000,
    Until: 21:15,0.048,
    Until: 21:20,1.000,
    Until: 21:41,0.000,
    Until: 21:43,1.000,
    Until: 22:28,0.048,
    Until: 22:33,1.000,
    Until: 22:39,0.000,
    Until: 22:41,1.000,
    Until: 23:26,0.048,
    Until: 23:31,1.000,
    Until: 24:00,0.000,
    Through: 2/18,
    For: AllDays,
    Until: 07:50,0.000,
    Until: 07:52,1.000,
    Until: 08:37,0.048,
    Until: 08:42,1.000,
    Until: 13:00,0.000,
    Until: 13:02,1.000,
    Until: 13:47,0.048,
    Until: 13:52,1.000,
    Until: 14:07,0.000,
    Until: 14:09,1.000,
    Until: 14:54,0.048,
    Until: 14:59,1.000,
    Until: 15:45,0.000,
    Until: 15:47,1.000,
    Until: 16:32,0.048,
    Until: 16:37,1.000,
    Until: 22:10,0.000,
    Until: 22:12,1.000,
    Until: 22:57,0.048,
    Until: 23:02,1.000,
    Until: 24:00,0.000,
    Through: 2/19,
    For: AllDays,
    Until: 05:16,0.000,
    Until: 05:18,1.000,
    Until: 06:03,0.048,
    Until: 06:08,1.000,
    Until: 13:32,0.000,
    Until: 13:34,1.000,
    Until: 14:19,0.048,
    Until: 14:24,1.000,
    Until: 16:39,0.000,
    Until: 16:41,1.000,
    Until: 17:26,0.048,
    Until: 17:31,1.000,
    Until: 20:23,0.000,
    Until: 20:25,1.000,
    Until: 21:10,0.048,
    Until: 21:15,1.000,
    Until: 21:16,0.000,
    Until: 21:18,1.000,
    Until: 22:03,0.048,
    Until: 22:08,1.000,
    Until: 22:34,0.000,
    Until: 22:36,1.000,
    Until: 23:21,0.048,
    Until: 23:26,1.000,
    Until: 24:00,0.000,
    Through: 2/20,
    For: AllDays,
    Until: 11:13,0.000,
    Until: 11:15,1.000,
    Until: 12:00,0.048,
    Until: 12:05,1.000,
    Until: 12:45,0.000,
    Until: 12:47,1.000,
    Until: 13:32,0.048,
    Until: 13:37,1.000,
    Until: 18:03,0.000,
    Until: 18:05,1.000,
    Until: 18:50,0.048,
    Until: 18:55,1.000,
    Until: 20:06,0.000,
    Until: 20:08,1.000,
    Until: 20:53,0.048,
    Until: 20:58,1.000,
    Until: 22:40,0.000,
    Until: 22:42,1.000,
    Until: 23:27,0.048,
    Until: 23:32,1.000,
    Until: 24:00,0.000,
    Through: 2/21,
    For: AllDays,
    Until: 24:00,0.000,
    Through: 2/22,
    For: AllDays,
    Until: 24:00,0.000,
    Through: 2/23,
    For: AllDays,
    Until: 08:10,0.000,
    Until: 08:12,1.000,
    Until: 08:57,0.048,
    Until: 09:02,1.000,
    Until: 11:32,0.000,
    Until: 11:34,1.000,
    Until: 12:19,0.048,
    Until: 12:24,1.000,
    Until: 13:21,0.000,
    Until: 13:23,1.000,
    Until: 14:08,0.048,
    Until: 14:13,1.000,
    Until: 17:06,0.000,
    Until: 17:08,1.000,
    Until: 17:53,0.048,
    Until: 17:58,1.000,
    Until: 18:36,0.000,
    Until: 18:38,1.000,
    Until: 19:23,0.048,
    Until: 19:28,1.000,
    Until: 20:32,0.000,
    Until: 20:34,1.000,
    Until: 21:19,0.048,
    Until: 21:24,1.000,
    Until: 21:42,0.000,
    Until: 21:44,1.000,
    Until: 22:29,0.048,
    Until: 22:34,1.000,
    Until: 22:35,0.000,
    Until: 22:37,1.000,
    Until: 23:22,0.048,
    Until: 23:27,1.000,
    Until: 24:00,0.000,
    Through: 2/24,
    For: AllDays,
    Until: 12:48,0.000,
    Until: 12:50,1.000,
    Until: 13:35,0.048,
    Until: 13:40,1.000,
    Until: 16:05,0.000,
    Until: 16:07,1.000,
    Until: 16:52,0.048,
    Until: 16:57,1.000,
    Until: 22:11,0.000,
    Until: 22:13,1.000,
    Until: 22:58,0.048,
    Until: 23:03,1.000,
    Until: 23:17,0.000,
    Until: 23:19,1.000,
    Until: 24:00,0.048,
    Through: 2/25,
    For: AllDays,
    Until: 00:04,0.048,
    Until: 00:09,1.000,
    Until: 08:44,0.000,
    Until: 08:46,1.000,
    Until: 09:31,0.048,
    Until: 09:36,1.000,
    Until: 13:03,0.000,
    Until: 13:05,1.000,
    Until: 13:50,0.048,
    Until: 13:55,1.000,
    Until: 18:39,0.000,
    Until: 18:41,1.000,
    Until: 19:26,0.048,
    Until: 19:31,1.000,
    Until: 21:21,0.000,
    Until: 21:23,1.000,
    Until: 22:08,0.048,
    Until: 22:13,1.000,
    Until: 22:14,0.000,
    Until: 22:16,1.000,
    Until: 23:01,0.048,
    Until: 23:06,1.000,
    Until: 24:00,0.000,
    Through: 2/26,
    For: AllDays,
    Until: 07:08,0.000,
    Until: 07:10,1.000,
    Until: 07:55,0.048,
    Until: 08:00,1.000,
    Until: 10:40,0.000,
    Until: 10:42,1.000,
    Until: 11:27,0.048,
    Until: 11:32,1.000,
    Until: 16:36,0.000,
    Until: 16:38,1.000,
    Until: 17:23,0.048,
    Until: 17:28,1.000,
    Until: 21:02,0.000,
    Until: 21:04,1.000,
    Until: 21:49,0.048,
    Until: 21:54,1.000,
    Until: 21:56,0.000,
    Until: 21:58,1.000,
    Until: 22:43,0.048,
    Until: 22:48,1.000,
    Until: 24:00,0.000,
    Through: 2/27,
    For: AllDays,
    Until: 12:03,0.000,
    Until: 12:05,1.000,
    Until: 12:50,0.048,
    Until: 12:55,1.000,
    Until: 16:30,0.000,
    Until: 16:32,1.000,
    Until: 17:17,0.048,
    Until: 17:22,1.000,
    Until: 21:11,0.000,
    Until: 21:13,1.000,
    Until: 21:58,0.048,
    Until: 22:03,1.000,
    Until: 22:26,0.000,
    Until: 22:28,1.000,
    Until: 23:13,0.048,
    Until: 23:18,1.000,
    Until: 23:19,0.000,
    Until: 23:21,1.000,
    Until: 24:00,0.048,
    Through: 2/28,
    For: AllDays,
    Until: 00:06,0.048,
    Until: 00:11,1.000,
    Until: 24:00,0.000,
    Through: 3/1,
    For: AllDays,
    Until: 24:00,0.000,
    Through: 3/2,
    For: AllDays,
    Until: 06:19,0.000,
    Until: 06:21,1.000,
    Until: 07:06,0.048,
    Until: 07:11,1.000,
    Until: 17:27,0.000,
    Until: 17:29,1.000,
    Until: 18:14,0.048,
    Until: 18:19,1.000,
    Until: 20:01,0.000,
    Until: 20:03,1.000,
    Until: 20:48,0.048,
    Until: 20:53,1.000,
    Until: 21:29,0.000,
    Until: 21:31,1.000,
    Until: 22:16,0.048,
    Until: 22:21,1.000,
    Until: 24:00,0.000,
    Through: 3/3,
    For: AllDays,
    Until: 08:17,0.000,
    Until: 08:19,1.000,
    Until: 09:04,0.048,
    Until: 09:09,1.000,
    Until: 11:32,0.000,
    Until: 11:34,1.000,
    Until: 12:19,0.048,
    Until: 12:24,1.000,
    Until: 17:31,0.000,
    Until: 17:33,1.000,
    Until: 18:18,0.048,
    Until: 18:23,1.000,
    Until: 20:30,0.000,
    Until: 20:32,1.000,
    Until: 21:17,0.048,
    Until: 21:22,1.000,
    Until: 21:35,0.000,
    Until: 21:37,1.000,
    Until: 22:22,0.048,
    Until: 22:27,1.000,
    Until: 22:28,0.000,
    Until: 22:30,1.000,
    Until: 23:15,0.048,
    Until: 23:20,1.000,
    Until: 24:00,0.000,
    Through: 3/4,
    For: AllDays,
    Until: 06:50,0.000,
    Until: 06:52,1.000,
    Until: 07:37,0.048,
    Until: 07:42,1.000,
    Until: 20:43,0.000,
    Until: 20:45,1.000,
    Until: 21:30,0.048,
    Until: 21:35,1.000,
    Until: 22:11,0.000,
    Until: 22:13,1.000,
    Until: 22:58,0.048,
    Until: 23:03,1.000,
    Until: 24:00,0.000,
    Through: 3/5,
    For: AllDays,
    Until: 11:43,0.000,
    Until: 11:45,1.000,
    Until: 12:30,0.048,
    Until: 12:35,1.000,
    Until: 17:02,0.000,
    Until: 17:04,1.000,
    Until: 17:49,0.048,
    Until: 17:54,1.000,
    Until: 19:38,0.000,
    Until: 19:40,1.000,
    Until: 20:25,0.048,
    Until: 20:30,1.000,
    Until: 22:36,0.000,
    Until: 22:38,1.000,
    Until: 23:23,0.048,
    Until: 23:28,1.000,
    Until: 24:00,0.000,
    Through: 3/6,
    For: AllDays,
    Until: 11:13,0.000,
    Until: 11:15,1.000,
    Until: 12:00,0.048,
    Until: 12:05,1.000,
    Until: 13:07,0.000,
    Until: 13:09,1.000,
    Until: 13:54,0.048,
    Until: 13:59,1.000,
    Until: 18:47,0.000,
    Until: 18:49,1.000,
    Until: 19:34,0.048,
    Until: 19:39,1.000,
    Until: 21:26,0.000,
    Until: 21:28,1.000,
    Until: 22:13,0.048,
    Until: 22:18,1.000,
    Until: 23:25,0.000,
    Until: 23:27,1.000,
    Until: 24:00,0.048,
    Through: 3/7,
    For: AllDays,
    Until: 00:12,0.048,
    Until: 00:17,1.000,
    Until: 24:00,0.000,
    Through: 3/8,
    For: AllDays,
    Until: 24:00,0.000,
    Through: 3/9,
    For: AllDays,
    Until: 10:33,0.000,
    Until: 10:35,1.000,
    Until: 11:20,0.048,
    Until: 11:25,1.000,
    Until: 17:20,0.000,
    Until: 17:22,1.000,
    Until: 18:07,0.048,
    Until: 18:12,1.000,
    Until: 20:08,0.000,
    Until: 20:10,1.000,
    Until: 20:55,0.048,
    Until: 21:00,1.000,
    Until: 22:26,0.000,
    Until: 22:28,1.000,
    Until: 23:13,0.048,
    Until: 23:18,1.000,
    Until: 24:00,0.000,
    Through: 3/10,
    For: AllDays,
    Until: 08:04,0.000,
    Until: 08:06,1.000,
    Until: 08:51,0.048,
    Until: 08:56,1.000,
    Until: 12:06,0.000,
    Until: 12:08,1.000,
    Until: 12:53,0.048,
    Until: 12:58,1.000,
    Until: 15:15,0.000,
    Until: 15:17,1.000,
    Until: 16:02,0.048,
    Until: 16:07,1.000,
    Until: 20:59,0.000,
    Until: 21:01,1.000,
    Until: 21:46,0.048,
    Until: 21:51,1.000,
    Until: 23:46,0.000,
    Until: 23:48,1.000,
    Until: 24:00,0.048,
    Through: 3/11,
    For: AllDays,
    Until: 00:33,0.048,
    Until: 00:38,1.000,
    Until: 12:51,0.000,
    Until: 12:53,1.000,
    Until: 13:38,0.048,
    Until: 13:43,1.000,
    Until: 15:16,0.000,
    Until: 15:18,1.000,
    Until: 16:03,0.048,
    Until: 16:08,1.000,
    Until: 19:50,0.000,
    Until: 19:52,1.000,
    Until: 20:37,0.048,
    Until: 20:42,1.000,
    Until: 21:11,0.000,
    Until: 21:13,1.000,
    Until: 21:58,0.048,
    Until: 22:03,1.000,
    Until: 22:04,0.000,
    Until: 22:06,1.000,
    Until: 22:51,0.048,
    Until: 22:56,1.000,
    Until: 24:00,0.000,
    Through: 3/12,
    For: AllDays,
    Until: 09:00,0.000,
    Until: 09:02,1.000,
    Until: 09:47,0.048,
    Until: 09:52,1.000,
    Until: 13:19,0.000,
    Until: 13:21,1.000,
    Until: 14:06,0.048,
    Until: 14:11,1.000,
    Until: 20:43,0.000,
    Until: 20:45,1.000,
    Until: 21:30,0.048,
    Until: 21:35,1.000,
    Until: 21:59,0.000,
    Until: 22:01,1.000,
    Until: 22:46,0.048,
    Until: 22:51,1.000,
    Until: 24:00,0.000,
    Through: 3/13,
    For: AllDays,
    Until: 07:22,0.000,
    Until: 07:24,1.000,
    Until: 08:09,0.048,
    Until: 08:14,1.000,
    Until: 11:43,0.000,
    Until: 11:45,1.000,
    Until: 12:30,0.048,
    Until: 12:35,1.000,
    Until: 12:41,0.000,
    Until: 12:43,1.000,
    Until: 13:28,0.048,
    Until: 13:33,1.000,
    Until: 16:49,0.000,
    Until: 16:51,1.000,
    Until: 17:36,0.048,
    Until: 17:41,1.000,
    Until: 21:19,0.000,
    Until: 21:21,1.000,
    Until: 22:06,0.048,
    Until: 22:11,1.000,
    Until: 24:00,0.000,
    Through: 3/14,
    For: AllDays,
    Until: 24:00,0.000,
    Through: 3/15,
    For: AllDays,
    Until: 24:00,0.000,
    Through: 3/16,
    For: AllDays,
    Until: 07:06,0.000,
    Until: 07:08,1.000,
    Until: 07:53,0.048,
    Until: 07:58,1.000,
    Until: 13:20,0.000,
    Until: 13:22,1.000,
    Until: 14:07,0.048,
    Until: 14:12,1.000,
    Until: 15:43,0.000,
    Until: 15:45,1.000,
    Until: 16:30,0.048,
    Until: 16:35,1.000,
    Until: 16:47,0.000,
    Until: 16:49,1.000,
    Until: 17:34,0.048,
    Until: 17:39,1.000,
    Until: 20:34,0.000,
    Until: 20:36,1.000,
    Until: 21:21,0.048,
    Until: 21:26,1.000,
    Until: 21:47,0.000,
    Until: 21:49,1.000,
    Until: 22:34,0.048,
    Until: 22:39,1.000,
    Until: 23:11,0.000,
    Until: 23:13,1.000,
    Until: 23:58,0.048,
    Until: 24:00,1.000,
    Through: 3/17,
    For: AllDays,
    Until: 00:03,1.000,
    Until: 10:52,0.000,
    Until: 10:54,1.000,
    Until: 11:39,0.048,
    Until: 11:44,1.000,
    Until: 12:57,0.000,
    Until: 12:59,1.000,
    Until: 13:44,0.048,
    Until: 13:49,1.000,
    Until: 17:34,0.000,
    Until: 17:36,1.000,
    Until: 18:21,0.048,
    Until: 18:26,1.000,
    Until: 19:55,0.000,
    Until: 19:57,1.000,
    Until: 20:42,0.048,
    Until: 20:47,1.000,
    Until: 22:00,0.000,
    Until: 22:02,1.000,
    Until: 22:47,0.048,
    Until: 22:52,1.000,
    Until: 24:00,0.000,
    Through: 3/18,
    For: AllDays,
    Until: 11:40,0.000,
    Until: 11:42,1.000,
    Until: 12:27,0.048,
    Until: 12:32,1.000,
    Until: 12:36,0.000,
    Until: 12:38,1.000,
    Until: 13:23,0.048,
    Until: 13:28,1.000,
    Until: 20:21,0.000,
    Until: 20:23,1.000,
    Until: 21:08,0.048,
    Until: 21:13,1.000,
    Until: 21:39,0.000,
    Until: 21:41,1.000,
    Until: 22:26,0.048,
    Until: 22:31,1.000,
    Until: 23:24,0.000,
    Until: 23:26,1.000,
    Until: 24:00,0.048,
    Through: 3/19,
    For: AllDays,
    Until: 00:11,0.048,
    Until: 00:16,1.000,
    Until: 05:13,0.000,
    Until: 05:15,1.000,
    Until: 06:00,0.048,
    Until: 06:05,1.000,
    Until: 13:32,0.000,
    Until: 13:34,1.000,
    Until: 14:19,0.048,
    Until: 14:24,1.000,
    Until: 17:28,0.000,
    Until: 17:30,1.000,
    Until: 18:15,0.048,
    Until: 18:20,1.000,
    Until: 20:09,0.000,
    Until: 20:11,1.000,
    Until: 20:56,0.048,
    Until: 21:01,1.000,
    Until: 21:08,0.000,
    Until: 21:10,1.000,
    Until: 21:55,0.048,
    Until: 22:00,1.000,
    Until: 22:30,0.000,
    Until: 22:32,1.000,
    Until: 23:17,0.048,
    Until: 23:22,1.000,
    Until: 24:00,0.000,
    Through: 3/20,
    For: AllDays,
    Until: 08:37,0.000,
    Until: 08:39,1.000,
    Until: 09:24,0.048,
    Until: 09:29,1.000,
    Until: 12:11,0.000,
    Until: 12:13,1.000,
    Until: 12:58,0.048,
    Until: 13:03,1.000,
    Until: 13:25,0.000,
    Until: 13:27,1.000,
    Until: 14:12,0.048,
    Until: 14:17,1.000,
    Until: 17:08,0.000,
    Until: 17:10,1.000,
    Until: 17:55,0.048,
    Until: 18:00,1.000,
    Until: 21:22,0.000,
    Until: 21:24,1.000,
    Until: 22:09,0.048,
    Until: 22:14,1.000,
    Until: 24:00,0.000,
    Through: 3/21,
    For: AllDays,
    Until: 24:00,0.000,
    Through: 3/22,
    For: AllDays,
    Until: 24:00,0.000,
    Through: 3/23,
    For: AllDays,
    Until: 11:08,0.000,
    Until: 11:10,1.000,
    Until: 11:55,0.048,
    Until: 12:00,1.000,
    Until: 17:09,0.000,
    Until: 17:11,1.000,
    Until: 17:56,0.048,
    Until: 18:01,1.000,
    Until: 23:21,0.000,
    Until: 23:23,1.000,
    Until: 24:00,0.048,
    Through: 3/24,
    For: AllDays,
    Until: 00:08,0.048,
    Until: 00:13,1.000,
    Until: 10:51,0.000,
    Until: 10:53,1.000,
    Until: 11:38,0.048,
    Until: 11:43,1.000,
    Until: 18:45,0.000,
    Until: 18:47,1.000,
    Until: 19:32,0.048,
    Until: 19:37,1.000,
    Until: 21:27,0.000,
    Until: 21:29,1.000,
    Until: 22:14,0.048,
    Until: 22:19,1.000,
    Until: 24:00,0.000,
    Through: 3/25,
    For: AllDays,
    Until: 08:11,0.000,
    Until: 08:13,1.000,
    Until: 08:58,0.048,
    Until: 09:03,1.000,
    Until: 13:28,0.000,
    Until: 13:30,1.000,
    Until: 14:15,0.048,
    Until: 14:20,1.000,
    Until: 20:50,0.000,
    Until: 20:52,1.000,
    Until: 21:37,0.048,
    Until: 21:42,1.000,
    Until: 21:43,0.000,
    Until: 21:45,1.000,
    Until: 22:30,0.048,
    Until: 22:35,1.000,
    Until: 24:00,0.000,
    Through: 3/26,
    For: AllDays,
    Until: 10:59,0.000,
    Until: 11:01,1.000,
    Until: 11:46,0.048,
    Until: 11:51,1.000,
    Until: 16:54,0.000,
    Until: 16:56,1.000,
    Until: 17:41,0.048,
    Until: 17:46,1.000,
    Until: 21:56,0.000,
    Until: 21:58,1.000,
    Until: 22:43,0.048,
    Until: 22:48,1.000,
    Until: 23:27,0.000,
    Until: 23:29,1.000,
    Until: 24:00,0.048,
    Through: 3/27,
    For: AllDays,
    Until: 00:14,0.048,
    Until: 00:19,1.000,
    Until: 05:18,0.000,
    Until: 05:20,1.000,
    Until: 06:05,0.048,
    Until: 06:10,1.000,
    Until: 12:05,0.000,
    Until: 12:07,1.000,
    Until: 12:52,0.048,
    Until: 12:57,1.000,
    Until: 13:19,0.000,
    Until: 13:21,1.000,
    Until: 14:06,0.048,
    Until: 14:11,1.000,
    Until: 20:14,0.000,
    Until: 20:16,1.000,
    Until: 21:01,0.048,
    Until: 21:06,1.000,
    Until: 22:26,0.000,
    Until: 22:28,1.000,
    Until: 23:13,0.048,
    Until: 23:18,1.000,
    Until: 24:00,0.000,
    Through: 3/28,
    For: AllDays,
    Until: 24:00,0.000,
    Through: 3/29,
    For: AllDays,
    Until: 24:00,0.000,
    Through: 3/30,
    For: AllDays,
    Until: 12:46,0.000,
    Until: 12:48,1.000,
    Until: 13:33,0.048,
    Until: 13:38,1.000,
    Until: 20:52,0.000,
    Until: 20:54,1.000,
    Until: 21:39,0.048,
    Until: 21:44,1.000,
    Until: 22:44,0.000,
    Until: 22:46,1.000,
    Until: 23:31,0.048,
    Until: 23:36,1.000,
    Until: 24:00,0.000,
    Through: 3/31,
    For: AllDays,
    Until: 10:50,0.000,
    Until: 10:52,1.000,
    Until: 11:37,0.048,
    Until: 11:42,1.000,
    Until: 13:52,0.000,
    Until: 13:54,1.000,
    Until: 14:39,0.048,
    Until: 14:44,1.000,
    Until: 15:56,0.000,
    Until: 15:58,1.000,
    Until: 16:43,0.048,
    Until: 16:48,1.000,
    Until: 19:41,0.000,
    Until: 19:43,1.000,
    Until: 20:28,0.048,
    Until: 20:33,1.000,
    Until: 21:39,0.000,
    Until: 21:41,1.000,
    Until: 22:26,0.048,
    Until: 22:31,1.000,
    Until: 22:47,0.000,
    Until: 22:49,1.000,
    Until: 23:34,0.048,
    Until: 23:39,1.000,
    Until: 24:00,0.000,
    Through: 4/1,
    For: AllDays,
    Until: 05:30,0.000,
    Until: 05:32,1.000,
    Until: 06:17,0.048,
    Until: 06:22,1.000,
    Until: 16:53,0.000,
    Until: 16:55,1.000,
    Until: 17:40,0.048,
    Until: 17:45,1.000,
    Until: 20:24,0.000,
    Until: 20:26,1.000,
    Until: 21:11,0.048,
    Until: 21:16,1.000,
    Until: 22:34,0.000,
    Until: 22:36,1.000,
    Until: 23:21,0.048,
    Until: 23:26,1.000,
    Until: 24:00,0.000,
    Through: 4/2,
    For: AllDays,
    Until: 10:02,0.000,
    Until: 10:04,1.000,
    Until: 10:49,0.048,
    Until: 10:54,1.000,
    Until: 11:51,0.000,
    Until: 11:53,1.000,
    Until: 12:38,0.048,
    Until: 12:43,1.000,
    Until: 21:42,0.000,
    Until: 21:44,1.000,
    Until: 22:29,0.048,
    Until: 22:34,1.000,
    Until: 22:56,0.000,
    Until: 22:58,1.000,
    Until: 23:43,0.048,
    Until: 23:48,1.000,
    Until: 24:00,0.000,
    Through: 4/3,
    For: AllDays,
    Until: 11:39,0.000,
    Until: 11:41,1.000,
    Until: 12:26,0.048,
    Until: 12:31,1.000,
    Until: 22:05,0.000,
    Until: 22:07,1.000,
    Until: 22:52,0.048,
    Until: 22:57,1.000,
    Until: 23:08,0.000,
    Until: 23:10,1.000,
    Until: 23:55,0.048,
    Until: 24:00,1.000,
    Through: 4/4,
    For: AllDays,
    Until: 00:00,1.000,
    Until: 24:00,0.000,
    Through: 4/5,
    For: AllDays,
    Until: 24:00,0.000,
    Through: 4/6,
    For: AllDays,
    Until: 11:42,0.000,
    Until: 11:44,1.000,
    Until: 12:29,0.048,
    Until: 12:34,1.000,
    Until: 12:35,0.000,
    Until: 12:37,1.000,
    Until: 13:22,0.048,
    Until: 13:27,1.000,
    Until: 16:09,0.000,
    Until: 16:11,1.000,
    Until: 16:56,0.048,
    Until: 17:01,1.000,
    Until: 21:53,0.000,
    Until: 21:55,1.000,
    Until: 22:40,0.048,
    Until: 22:45,1.000,
    Until: 23:41,0.000,
    Until: 23:43,1.000,
    Until: 24:00,0.048,
    Through: 4/7,
    For: AllDays,
    Until: 00:28,0.048,
    Until: 00:33,1.000,
    Until: 10:11,0.000,
    Until: 10:13,1.000,
    Until: 10:58,0.048,
    Until: 11:03,1.000,
    Until: 11:53,0.000,
    Until: 11:55,1.000,
    Until: 12:40,0.048,
    Until: 12:45,1.000,
    Until: 17:34,0.000,
    Until: 17:36,1.000,
    Until: 18:21,0.048,
    Until: 18:26,1.000,
    Until: 20:36,0.000,
    Until: 20:38,1.000,
    Until: 21:23,0.048,
    Until: 21:28,1.000,
    Until: 22:07,0.000,
    Until: 22:09,1.000,
    Until: 22:54,0.048,
    Until: 22:59,1.000,
    Until: 23:04,0.000,
    Until: 23:06,1.000,
    Until: 23:51,0.048,
    Until: 23:56,1.000,
    Until: 24:00,0.000,
    Through: 4/8,
    For: AllDays,
    Until: 12:03,0.000,
    Until: 12:05,1.000,
    Until: 12:50,0.048,
    Until: 12:55,1.000,
    Until: 13:10,0.000,
    Until: 13:12,1.000,
    Until: 13:57,0.048,
    Until: 14:02,1.000,
    Until: 16:27,0.000,
    Until: 16:29,1.000,
    Until: 17:14,0.048,
    Until: 17:19,1.000,
    Until: 20:27,0.000,
    Until: 20:29,1.000,
    Until: 21:14,0.048,
    Until: 21:19,1.000,
    Until: 22:53,0.000,
    Until: 22:55,1.000,
    Until: 23:40,0.048,
    Until: 23:45,1.000,
    Until: 23:51,0.000,
    Until: 23:53,1.000,
    Until: 24:00,0.048,
    Through: 4/9,
    For: AllDays,
    Until: 00:38,0.048,
    Until: 00:43,1.000,
    Until: 12:14,0.000,
    Until: 12:16,1.000,
    Until: 13:01,0.048,
    Until: 13:06,1.000,
    Until: 18:27,0.000,
    Until: 18:29,1.000,
    Until: 19:14,0.048,
    Until: 19:19,1.000,
    Until: 20:30,0.000,
    Until: 20:32,1.000,
    Until: 21:17,0.048,
    Until: 21:22,1.000,
    Until: 21:32,0.000,
    Until: 21:34,1.000,
    Until: 22:19,0.048,
    Until: 22:24,1.000,
    Until: 23:11,0.000,
    Until: 23:13,1.000,
    Until: 23:58,0.048,
    Until: 24:00,1.000,
    Through: 4/10,
    For: AllDays,
    Until: 00:03,1.000,
    Until: 11:56,0.000,
    Until: 11:58,1.000,
    Until: 12:43,0.048,
    Until: 12:48,1.000,
    Until: 16:02,0.000,
    Until: 16:04,1.000,
    Until: 16:49,0.048,
    Until: 16:54,1.000,
    Until: 17:21,0.000,
    Until: 17:23,1.000,
    Until: 18:08,0.048,
    Until: 18:13,1.000,
    Until: 19:25,0.000,
    Until: 19:27,1.000,
    Until: 20:12,0.048,
    Until: 20:17,1.000,
    Until: 21:19,0.000,
    Until: 21:21,1.000,
    Until: 22:06,0.048,
    Until: 22:11,1.000,
    Until: 23:50,0.000,
    Until: 23:52,1.000,
    Until: 24:00,0.048,
    Through: 4/11,
    For: AllDays,
    Until: 00:37,0.048,
    Until: 00:42,1.000,
    Until: 24:00,0.000,
    Through: 4/12,
    For: AllDays,
    Until: 24:00,0.000,
    Through: 4/13,
    For: AllDays,
    Until: 05:01,0.000,
    Until: 05:03,1.000,
    Until: 05:48,0.048,
    Until: 05:53,1.000,
    Until: 07:09,0.000,
    Until: 07:11,1.000,
    Until: 07:56,0.048,
    Until: 08:01,1.000,
    Until: 13:32,0.000,
    Until: 13:34,1.000,
    Until: 14:19,0.048,
    Until: 14:24,1.000,
    Until: 16:47,0.000,
    Until: 16:49,1.000,
    Until: 17:34,0.048,
    Until: 17:39,1.000,
    Until: 19:37,0.000,
    Until: 19:39,1.000,
    Until: 20:24,0.048,
    Until: 20:29,1.000,
    Until: 20:49,0.000,
    Until: 20:51,1.000,
    Until: 21:36,0.048,
    Until: 21:41,1.000,
    Until: 21:52,0.000,
    Until: 21:54,1.000,
    Until: 22:39,0.048,
    Until: 22:44,1.000,
    Until: 24:00,0.000,
    Through: 4/14,
    For: AllDays,
    Until: 11:24,0.000,
    Until: 11:26,1.000,
    Until: 12:11,0.048,
    Until: 12:16,1.000,
    Until: 13:08,0.000,
    Until: 13:10,1.000,
    Until: 13:55,0.048,
    Until: 14:00,1.000,
    Until: 17:25,0.000,
    Until: 17:27,1.000,
    Until: 18:12,0.048,
    Until: 18:17,1.000,
    Until: 20:08,0.000,
    Until: 20:10,1.000,
    Until: 20:55,0.048,
    Until: 21:00,1.000,
    Until: 22:00,0.000,
    Until: 22:02,1.000,
    Until: 22:47,0.048,
    Until: 22:52,1.000,
    Until: 24:00,0.000,
    Through: 4/15,
    For: AllDays,
    Until: 06:35,0.000,
    Until: 06:37,1.000,
    Until: 07:22,0.048,
    Until: 07:27,1.000,
    Until: 10:42,0.000,
    Until: 10:44,1.000,
    Until: 11:29,0.048,
    Until: 11:34,1.000,
    Until: 11:35,0.000,
    Until: 11:37,1.000,
    Until: 12:22,0.048,
    Until: 12:27,1.000,
    Until: 17:19,0.000,
    Until: 17:21,1.000,
    Until: 18:06,0.048,
    Until: 18:11,1.000,
    Until: 18:42,0.000,
    Until: 18:44,1.000,
    Until: 19:29,0.048,
    Until: 19:34,1.000,
    Until: 21:37,0.000,
    Until: 21:39,1.000,
    Until: 22:24,0.048,
    Until: 22:29,1.000,
    Until: 23:26,0.000,
    Until: 23:28,1.000,
    Until: 24:00,0.048,
    Through: 4/16,
    For: AllDays,
    Until: 00:13,0.048,
    Until: 00:18,1.000,
    Until: 06:01,0.000,
    Until: 06:03,1.000,
    Until: 06:48,0.048,
    Until: 06:53,1.000,
    Until: 10:44,0.000,
    Until: 10:46,1.000,
    Until: 11:31,0.048,
    Until: 11:36,1.000,
    Until: 12:49,0.000,
    Until: 12:51,1.000,
    Until: 13:36,0.048,
    Until: 13:41,1.000,
    Until: 17:29,0.000,
    Until: 17:31,1.000,
    Until: 18:16,0.048,
    Until: 18:21,1.000,
    Until: 20:05,0.000,
    Until: 20:07,1.000,
    Until: 20:52,0.048,
    Until: 20:57,1.000,
    Until: 21:05,0.000,
    Until: 21:07,1.000,
    Until: 21:52,0.048,
    Until: 21:57,1.000,
    Until: 22:21,0.000,
    Until: 22:23,1.000,
    Until: 23:08,0.048,
    Until: 23:13,1.000,
    Until: 24:00,0.000,
    Through: 4/17,
    For: AllDays,
    Until: 08:56,0.000,
    Until: 08:58,1.000,
    Until: 09:43,0.048,
    Until: 09:48,1.000,
    Until: 10:29,0.000,
    Until: 10:31,1.000,
    Until: 11:16,0.048,
    Until: 11:21,1.000,
    Until: 13:34,0.000,
    Until: 13:36,1.000,
    Until: 14:21,0.048,
    Until: 14:26,1.000,
    Until: 16:24,0.000,
    Until: 16:26,1.000,
    Until: 17:11,0.048,
    Until: 17:16,1.000,
    Until: 20:23,0.000,
    Until: 20:25,1.000,
    Until: 21:10,0.048,
    Until: 21:15,1.000,
    Until: 21:16,0.000,
    Until: 21:18,1.000,
    Until: 22:03,0.048,
    Until: 22:08,1.000,
    Until: 22:31,0.000,
    Until: 22:33,1.000,
    Until: 23:18,0.048,
    Until: 23:23,1.000,
    Until: 24:00,0.000,
    Through: 4/18,
    For: AllDays,
    Until: 24:00,0.000,
    Through: 4/19,
    For: AllDays,
    Until: 24:00,0.000,
    Through: 4/20,
    For: AllDays,
    Until: 05:35,0.000,
    Until: 05:37,1.000,
    Until: 06:22,0.048,
    Until: 06:27,1.000,
    Until: 08:40,0.000,
    Until: 08:42,1.000,
    Until: 09:27,0.048,
    Until: 09:32,1.000,
    Until: 11:08,0.000,
    Until: 11:10,1.000,
    Until: 11:55,0.048,
    Until: 12:00,1.000,
    Until: 12:56,0.000,
    Until: 12:58,1.000,
    Until: 13:43,0.048,
    Until: 13:48,1.000,
    Until: 15:44,0.000,
    Until: 15:46,1.000,
    Until: 16:31,0.048,
    Until: 16:36,1.000,
    Until: 17:30,0.000,
    Until: 17:32,1.000,
    Until: 18:17,0.048,
    Until: 18:22,1.000,
    Until: 20:17,0.000,
    Until: 20:19,1.000,
    Until: 21:04,0.048,
    Until: 21:09,1.000,
    Until: 21:35,0.000,
    Until: 21:37,1.000,
    Until: 22:22,0.048,
    Until: 22:27,1.000,
    Until: 24:00,0.000,
    Through: 4/21,
    For: AllDays,
    Until: 11:56,0.000,
    Until: 11:58,1.000,
    Until: 12:43,0.048,
    Until: 12:48,1.000,
    Until: 13:00,0.000,
    Until: 13:02,1.000,
    Until: 13:47,0.048,
    Until: 13:52,1.000,
    Until: 22:21,0.000,
    Until: 22:23,1.000,
    Until: 23:08,0.048,
    Until: 23:13,1.000,
    Until: 23:14,0.000,
    Until: 23:16,1.000,
    Until: 24:00,0.048,
    Through: 4/22,
    For: AllDays,
    Until: 00:01,0.048,
    Until: 00:06,1.000,
    Until: 05:15,0.000,
    Until: 05:17,1.000,
    Until: 06:02,0.048,
    Until: 06:07,1.000,
    Until: 21:30,0.000,
    Until: 21:32,1.000,
    Until: 22:17,0.048,
    Until: 22:22,1.000,
    Until: 22:23,0.000,
    Until: 22:25,1.000,
    Until: 23:10,0.048,
    Until: 23:15,1.000,
    Until: 24:00,0.000,
    Through: 4/23,
    For: AllDays,
    Until: 05:43,0.000,
    Until: 05:45,1.000,
    Until: 06:30,0.048,
    Until: 06:35,1.000,
    Until: 12:42,0.000,
    Until: 12:44,1.000,
    Until: 13:29,0.048,
    Until: 13:34,1.000,
    Until: 13:36,0.000,
    Until: 13:38,1.000,
    Until: 14:23,0.048,
    Until: 14:28,1.000,
    Until: 17:47,0.000,
    Until: 17:49,1.000,
    Until: 18:34,0.048,
    Until: 18:39,1.000,
    Until: 20:15,0.000,
    Until: 20:17,1.000,
    Until: 21:02,0.048,
    Until: 21:07,1.000,
    Until: 21:52,0.000,
    Until: 21:54,1.000,
    Until: 22:39,0.048,
    Until: 22:44,1.000,
    Until: 23:09,0.000,
    Until: 23:11,1.000,
    Until: 23:56,0.048,
    Until: 24:00,1.000,
    Through: 4/24,
    For: AllDays,
    Until: 00:01,1.000,
    Until: 06:11,0.000,
    Until: 06:13,1.000,
    Until: 06:58,0.048,
    Until: 07:03,1.000,
    Until: 11:54,0.000,
    Until: 11:56,1.000,
    Until: 12:41,0.048,
    Until: 12:46,1.000,
    Until: 14:14,0.000,
    Until: 14:16,1.000,
    Until: 15:01,0.048,
    Until: 15:06,1.000,
    Until: 15:41,0.000,
    Until: 15:43,1.000,
    Until: 16:28,0.048,
    Until: 16:33,1.000,
    Until: 20:20,0.000,
    Until: 20:22,1.000,
    Until: 21:07,0.048,
    Until: 21:12,1.000,
    Until: 21:17,0.000,
    Until: 21:19,1.000,
    Until: 22:04,0.048,
    Until: 22:09,1.000,
    Until: 22:43,0.000,
    Until: 22:45,1.000,
    Until: 23:30,0.048,
    Until: 23:35,1.000,
    Until: 24:00,0.000,
    Through: 4/25,
    For: AllDays,
    Until: 24:00,0.000,
    Through: 4/26,
    For: AllDays,
    Until: 24:00,0.000,
    Through: 4/27,
    For: AllDays,
    Until: 11:44,0.000,
    Until: 11:46,1.000,
    Until: 12:31,0.048,
    Until: 12:36,1.000,
    Until: 13:40,0.000,
    Until: 13:42,1.000,
    Until: 14:27,0.048,
    Until: 14:32,1.000,
    Until: 21:50,0.000,
    Until: 21:52,1.000,
    Until: 22:37,0.048,
    Until: 22:42,1.000,
    Until: 22:43,0.000,
    Until: 22:45,1.000,
    Until: 23:30,0.048,
    Until: 23:35,1.000,
    Until: 24:00,0.000,
    Through: 4/28,
    For: AllDays,
    Until: 11:02,0.000,
    Until: 11:04,1.000,
    Until: 11:49,0.048,
    Until: 11:54,1.000,
    Until: 12:43,0.000,
    Until: 12:45,1.000,
    Until: 13:30,0.048,
    Until: 13:35,1.000,
    Until: 18:22,0.000,
    Until: 18:24,1.000,
    Until: 19:09,0.048,
    Until: 19:14,1.000,
    Until: 20:57,0.000,
    Until: 20:59,1.000,
    Until: 21:44,0.048,
    Until: 21:49,1.000,
    Until: 24:00,0.000,
    Through: 4/29,
    For: AllDays,
    Until: 11:00,0.000,
    Until: 11:02,1.000,
    Until: 11:47,0.048,
    Until: 11:52,1.000,
    Until: 12:50,0.000,
    Until: 12:52,1.000,
    Until: 13:37,0.048,
    Until: 13:42,1.000,
    Until: 17:11,0.000,
    Until: 17:13,1.000,
    Until: 17:58,0.048,
    Until: 18:03,1.000,
    Until: 20:18,0.000,
    Until: 20:20,1.000,
    Until: 21:05,0.048,
    Until: 21:10,1.000,
    Until: 21:11,0.000,
    Until: 21:13,1.000,
    Until: 21:58,0.048,
    Until: 22:03,1.000,
    Until: 22:20,0.000,
    Until: 22:22,1.000,
    Until: 23:07,0.048,
    Until: 23:12,1.000,
    Until: 24:00,0.000,
    Through: 4/30,
    For: AllDays,
    Until: 09:17,0.000,
    Until: 09:19,1.000,
    Until: 10:04,0.048,
    Until: 10:09,1.000,
    Until: 12:27,0.000,
    Until: 12:29,1.000,
    Until: 13:14,0.048,
    Until: 13:19,1.000,
    Until: 17:12,0.000,
    Until: 17:14,1.000,
    Until: 17:59,0.048,
    Until: 18:04,1.000,
    Until: 21:12,0.000,
    Until: 21:14,1.000,
    Until: 21:59,0.048,
    Until: 22:04,1.000,
    Until: 22:22,0.000,
    Until: 22:24,1.000,
    Until: 23:09,0.048,
    Until: 23:14,1.000,
    Until: 24:00,0.000,
    Through: 5/1,
    For: AllDays,
    Until: 06:12,0.000,
    Until: 06:14,1.000,
    Until: 06:59,0.048,
    Until: 07:04,1.000,
    Until: 08:25,0.000,
    Until: 08:27,1.000,
    Until: 09:12,0.048,
    Until: 09:17,1.000,
    Until: 12:26,0.000,
    Until: 12:28,1.000,
    Until: 13:13,0.048,
    Until: 13:18,1.000,
    Until: 13:19,0.000,
    Until: 13:21,1.000,
    Until: 14:06,0.048,
    Until: 14:11,1.000,
    Until: 14:48,0.000,
    Until: 14:50,1.000,
    Until: 15:35,0.048,
    Until: 15:40,1.000,
    Until: 15:49,0.000,
    Until: 15:51,1.000,
    Until: 16:36,0.048,
    Until: 16:41,1.000,
    Until: 18:07,0.000,
    Until: 18:09,1.000,
    Until: 18:54,0.048,
    Until: 18:59,1.000,
    Until: 21:06,0.000,
    Until: 21:08,1.000,
    Until: 21:53,0.048,
    Until: 21:58,1.000,
    Until: 22:52,0.000,
    Until: 22:54,1.000,
    Until: 23:39,0.048,
    Until: 23:44,1.000,
    Until: 24:00,0.000,
    Through: 5/2,
    For: AllDays,
    Until: 24:00,0.000,
    Through: 5/3,
    For: AllDays,
    Until: 24:00,0.000,
    Through: 5/4,
    For: AllDays,
    Until: 12:39,0.000,
    Until: 12:41,1.000,
    Until: 13:26,0.048,
    Until: 13:31,1.000,
    Until: 13:32,0.000,
    Until: 13:34,1.000,
    Until: 14:19,0.048,
    Until: 14:24,1.000,
    Until: 15:33,0.000,
    Until: 15:35,1.000,
    Until: 16:20,0.048,
    Until: 16:25,1.000,
    Until: 18:33,0.000,
    Until: 18:35,1.000,
    Until: 19:20,0.048,
    Until: 19:25,1.000,
    Until: 20:50,0.000,
    Until: 20:52,1.000,
    Until: 21:37,0.048,
    Until: 21:42,1.000,
    Until: 21:43,0.000,
    Until: 21:45,1.000,
    Until: 22:30,0.048,
    Until: 22:35,1.000,
    Until: 24:00,0.000,
    Through: 5/5,
    For: AllDays,
    Until: 05:18,0.000,
    Until: 05:20,1.000,
    Until: 06:05,0.048,
    Until: 06:10,1.000,
    Until: 12:18,0.000,
    Until: 12:20,1.000,
    Until: 13:05,0.048,
    Until: 13:10,1.000,
    Until: 15:04,0.000,
    Until: 15:06,1.000,
    Until: 15:51,0.048,
    Until: 15:56,1.000,
    Until: 16:35,0.000,
    Until: 16:37,1.000,
    Until: 17:22,0.048,
    Until: 17:27,1.000,
    Until: 20:49,0.000,
    Until: 20:51,1.000,
    Until: 21:36,0.048,
    Until: 21:41,1.000,
    Until: 21:49,0.000,
    Until: 21:51,1.000,
    Until: 22:36,0.048,
    Until: 22:41,1.000,
    Until: 22:49,0.000,
    Until: 22:51,1.000,
    Until: 23:36,0.048,
    Until: 23:41,1.000,
    Until: 24:00,0.000,
    Through: 5/6,
    For: AllDays,
    Until: 12:47,0.000,
    Until: 12:49,1.000,
    Until: 13:34,0.048,
    Until: 13:39,1.000,
    Until: 18:01,0.000,
    Until: 18:03,1.000,
    Until: 18:48,0.048,
    Until: 18:53,1.000,
    Until: 20:56,0.000,
    Until: 20:58,1.000,
    Until: 21:43,0.048,
    Until: 21:48,1.000,
    Until: 22:58,0.000,
    Until: 23:00,1.000,
    Until: 23:45,0.048,
    Until: 23:50,1.000,
    Until: 24:00,0.000,
    Through: 5/7,
    For: AllDays,
    Until: 13:30,0.000,
    Until: 13:32,1.000,
    Until: 14:17,0.048,
    Until: 14:22,1.000,
    Until: 17:05,0.000,
    Until: 17:07,1.000,
    Until: 17:52,0.048,
    Until: 17:57,1.000,
    Until: 18:51,0.000,
    Until: 18:53,1.000,
    Until: 19:38,0.048,
    Until: 19:43,1.000,
    Until: 19:48,0.000,
    Until: 19:50,1.000,
    Until: 20:35,0.048,
    Until: 20:40,1.000,
    Until: 21:16,0.000,
    Until: 21:18,1.000,
    Until: 22:03,0.048,
    Until: 22:08,1.000,
    Until: 22:28,0.000,
    Until: 22:30,1.000,
    Until: 23:15,0.048,
    Until: 23:20,1.000,
    Until: 23:22,0.000,
    Until: 23:24,1.000,
    Until: 24:00,0.048,
    Through: 5/8,
    For: AllDays,
    Until: 00:09,0.048,
    Until: 00:14,1.000,
    Until: 08:28,0.000,
    Until: 08:30,1.000,
    Until: 09:15,0.048,
    Until: 09:20,1.000,
    Until: 11:18,0.000,
    Until: 11:20,1.000,
    Until: 12:05,0.048,
    Until: 12:10,1.000,
    Until: 12:39,0.000,
    Until: 12:41,1.000,
    Until: 13:26,0.048,
    Until: 13:31,1.000,
    Until: 16:33,0.000,
    Until: 16:35,1.000,
    Until: 17:20,0.048,
    Until: 17:25,1.000,
    Until: 18:37,0.000,
    Until: 18:39,1.000,
    Until: 19:24,0.048,
    Until: 19:29,1.000,
    Until: 19:54,0.000,
    Until: 19:56,1.000,
    Until: 20:41,0.048,
    Until: 20:46,1.000,
    Until: 20:47,0.000,
    Until: 20:49,1.000,
    Until: 21:34,0.048,
    Until: 21:39,1.000,
    Until: 21:54,0.000,
    Until: 21:56,1.000,
    Until: 22:41,0.048,
    Until: 22:46,1.000,
    Until: 24:00,0.000,
    Through: 5/9,
    For: AllDays,
    Until: 24:00,0.000,
    Through: 5/10,
    For: AllDays,
    Until: 24:00,0.000,
    Through: 5/11,
    For: AllDays,
    Until: 11:31,0.000,
    Until: 11:33,1.000,
    Until: 12:18,0.048,
    Until: 12:23,1.000,
    Until: 12:26,0.000,
    Until: 12:28,1.000,
    Until: 13:13,0.048,
    Until: 13:18,1.000,
    Until: 20:57,0.000,
    Until: 20:59,1.000,
    Until: 21:44,0.048,
    Until: 21:49,1.000,
    Until: 21:55,0.000,
    Until: 21:57,1.000,
    Until: 22:42,0.048,
    Until: 22:47,1.000,
    Until: 23:12,0.000,
    Until: 23:14,1.000,
    Until: 23:59,0.048,
    Until: 24:00,1.000,
    Through: 5/12,
    For: AllDays,
    Until: 00:04,1.000,
    Until: 07:41,0.000,
    Until: 07:43,1.000,
    Until: 08:28,0.048,
    Until: 08:33,1.000,
    Until: 10:39,0.000,
    Until: 10:41,1.000,
    Until: 11:26,0.048,
    Until: 11:31,1.000,
    Until: 11:40,0.000,
    Until: 11:42,1.000,
    Until: 12:27,0.048,
    Until: 12:32,1.000,
    Until: 15:40,0.000,
    Until: 15:42,1.000,
    Until: 16:27,0.048,
    Until: 16:32,1.000,
    Until: 20:42,0.000,
    Until: 20:44,1.000,
    Until: 21:29,0.048,
    Until: 21:34,1.000,
    Until: 23:38,0.000,
    Until: 23:40,1.000,
    Until: 24:00,0.048,
    Through: 5/13,
    For: AllDays,
    Until: 00:25,0.048,
    Until: 00:30,1.000,
    Until: 07:13,0.000,
    Until: 07:15,1.000,
    Until: 08:00,0.048,
    Until: 08:05,1.000,
    Until: 12:22,0.000,
    Until: 12:24,1.000,
    Until: 13:09,0.048,
    Until: 13:14,1.000,
    Until: 16:32,0.000,
    Until: 16:34,1.000,
    Until: 17:19,0.048,
    Until: 17:24,1.000,
    Until: 20:26,0.000,
    Until: 20:28,1.000,
    Until: 21:13,0.048,
    Until: 21:18,1.000,
    Until: 21:19,0.000,
    Until: 21:21,1.000,
    Until: 22:06,0.048,
    Until: 22:11,1.000,
    Until: 22:17,0.000,
    Until: 22:19,1.000,
    Until: 23:04,0.048,
    Until: 23:09,1.000,
    Until: 24:00,0.000,
    Through: 5/14,
    For: AllDays,
    Until: 12:49,0.000,
    Until: 12:51,1.000,
    Until: 13:36,0.048,
    Until: 13:41,1.000,
    Until: 16:34,0.000,
    Until: 16:36,1.000,
    Until: 17:21,0.048,
    Until: 17:26,1.000,
    Until: 21:28,0.000,
    Until: 21:30,1.000,
    Until: 22:15,0.048,
    Until: 22:20,1.000,
    Until: 22:30,0.000,
    Until: 22:32,1.000,
    Until: 23:17,0.048,
    Until: 23:22,1.000,
    Until: 24:00,0.000,
    Through: 5/15,
    For: AllDays,
    Until: 11:02,0.000,
    Until: 11:04,1.000,
    Until: 11:49,0.048,
    Until: 11:54,1.000,
    Until: 20:50,0.000,
    Until: 20:52,1.000,
    Until: 21:37,0.048,
    Until: 21:42,1.000,
    Until: 22:56,0.000,
    Until: 22:58,1.000,
    Until: 23:43,0.048,
    Until: 23:48,1.000,
    Until: 23:49,0.000,
    Until: 23:51,1.000,
    Until: 24:00,0.048,
    Through: 5/16,
    For: AllDays,
    Until: 00:36,0.048,
    Until: 00:41,1.000,
    Until: 24:00,0.000,
    Through: 5/17,
    For: AllDays,
    Until: 24:00,0.000,
    Through: 5/18,
    For: AllDays,
    Until: 10:25,0.000,
    Until: 10:27,1.000,
    Until: 11:12,0.048,
    Until: 11:17,1.000,
    Until: 12:14,0.000,
    Until: 12:16,1.000,
    Until: 13:01,0.048,
    Until: 13:06,1.000,
    Until: 13:27,0.000,
    Until: 13:29,1.000,
    Until: 14:14,0.048,
    Until: 14:19,1.000,
    Until: 17:37,0.000,
    Until: 17:39,1.000,
    Until: 18:24,0.048,
    Until: 18:29,1.000,
    Until: 20:11,0.000,
    Until: 20:13,1.000,
    Until: 20:58,0.048,
    Until: 21:03,1.000,
    Until: 21:12,0.000,
    Until: 21:14,1.000,
    Until: 21:59,0.048,
    Until: 22:04,1.000,
    Until: 22:06,0.000,
    Until: 22:08,1.000,
    Until: 22:53,0.048,
    Until: 22:58,1.000,
    Until: 24:00,0.000,
    Through: 5/19,
    For: AllDays,
    Until: 07:17,0.000,
    Until: 07:19,1.000,
    Until: 08:04,0.048,
    Until: 08:09,1.000,
    Until: 10:15,0.000,
    Until: 10:17,1.000,
    Until: 11:02,0.048,
    Until: 11:07,1.000,
    Until: 12:44,0.000,
    Until: 12:46,1.000,
    Until: 13:31,0.048,
    Until: 13:36,1.000,
    Until: 15:46,0.000,
    Until: 15:48,1.000,
    Until: 16:33,0.048,
    Until: 16:38,1.000,
    Until: 21:19,0.000,
    Until: 21:21,1.000,
    Until: 22:06,0.048,
    Until: 22:11,1.000,
    Until: 22:12,0.000,
    Until: 22:14,1.000,
    Until: 22:59,0.048,
    Until: 23:04,1.000,
    Until: 23:31,0.000,
    Until: 23:33,1.000,
    Until: 24:00,0.048,
    Through: 5/20,
    For: AllDays,
    Until: 00:18,0.048,
    Until: 00:23,1.000,
    Until: 13:38,0.000,
    Until: 13:40,1.000,
    Until: 14:25,0.048,
    Until: 14:30,1.000,
    Until: 15:24,0.000,
    Until: 15:26,1.000,
    Until: 16:11,0.048,
    Until: 16:16,1.000,
    Until: 21:31,0.000,
    Until: 21:33,1.000,
    Until: 22:18,0.048,
    Until: 22:23,1.000,
    Until: 22:30,0.000,
    Until: 22:32,1.000,
    Until: 23:17,0.048,
    Until: 23:22,1.000,
    Until: 23:28,0.000,
    Until: 23:30,1.000,
    Until: 24:00,0.048,
    Through: 5/21,
    For: AllDays,
    Until: 00:15,0.048,
    Until: 00:20,1.000,
    Until: 18:41,0.000,
    Until: 18:43,1.000,
    Until: 19:28,0.048,
    Until: 19:33,1.000,
    Until: 22:27,0.000,
    Until: 22:29,1.000,
    Until: 23:14,0.048,
    Until: 23:19,1.000,
    Until: 23:20,0.000,
    Until: 23:22,1.000,
    Until: 24:00,0.048,
    Through: 5/22,
    For: AllDays,
    Until: 00:07,0.048,
    Until: 00:12,1.000,
    Until: 12:49,0.000,
    Until: 12:51,1.000,
    Until: 13:36,0.048,
    Until: 13:41,1.000,
    Until: 14:11,0.000,
    Until: 14:13,1.000,
    Until: 14:58,0.048,
    Until: 15:03,1.000,
    Until: 18:14,0.000,
    Until: 18:16,1.000,
    Until: 19:01,0.048,
    Until: 19:06,1.000,
    Until: 21:38,0.000,
    Until: 21:40,1.000,
    Until: 22:25,0.048,
    Until: 22:30,1.000,
    Until: 22:31,0.000,
    Until: 22:33,1.000,
    Until: 23:18,0.048,
    Until: 23:23,1.000,
    Until: 23:51,0.000,
    Until: 23:53,1.000,
    Until: 24:00,0.048,
    Through: 5/23,
    For: AllDays,
    Until: 00:38,0.048,
    Until: 00:43,1.000,
    Until: 24:00,0.000,
    Through: 5/24,
    For: AllDays,
    Until: 24:00,0.000,
    Through: 5/25,
    For: AllDays,
    Until: 11:15,0.000,
    Until: 11:17,1.000,
    Until: 12:02,0.048,
    Until: 12:07,1.000,
    Until: 13:00,0.000,
    Until: 13:02,1.000,
    Until: 13:47,0.048,
    Until: 13:52,1.000,
    Until: 16:52,0.000,
    Until: 16:54,1.000,
    Until: 17:39,0.048,
    Until: 17:44,1.000,
    Until: 21:06,0.000,
    Until: 21:08,1.000,
    Until: 21:53,0.048,
    Until: 21:58,1.000,
    Until: 22:04,0.000,
    Until: 22:06,1.000,
    Until: 22:51,0.048,
    Until: 22:56,1.000,
    Until: 24:00,0.000,
    Through: 5/26,
    For: AllDays,
    Until: 06:39,0.000,
    Until: 06:41,1.000,
    Until: 07:26,0.048,
    Until: 07:31,1.000,
    Until: 13:01,0.000,
    Until: 13:03,1.000,
    Until: 13:48,0.048,
    Until: 13:53,1.000,
    Until: 16:48,0.000,
    Until: 16:50,1.000,
    Until: 17:35,0.048,
    Until: 17:40,1.000,
    Until: 19:47,0.000,
    Until: 19:49,1.000,
    Until: 20:34,0.048,
    Until: 20:39,1.000,
    Until: 20:53,0.000,
    Until: 20:55,1.000,
    Until: 21:40,0.048,
    Until: 21:45,1.000,
    Until: 22:09,0.000,
    Until: 22:11,1.000,
    Until: 22:56,0.048,
    Until: 23:01,1.000,
    Until: 24:00,0.000,
    Through: 5/27,
    For: AllDays,
    Until: 06:19,0.000,
    Until: 06:21,1.000,
    Until: 07:06,0.048,
    Until: 07:11,1.000,
    Until: 08:05,0.000,
    Until: 08:07,1.000,
    Until: 08:52,0.048,
    Until: 08:57,1.000,
    Until: 11:51,0.000,
    Until: 11:53,1.000,
    Until: 12:38,0.048,
    Until: 12:43,1.000,
    Until: 15:40,0.000,
    Until: 15:42,1.000,
    Until: 16:27,0.048,
    Until: 16:32,1.000,
    Until: 21:12,0.000,
    Until: 21:14,1.000,
    Until: 21:59,0.048,
    Until: 22:04,1.000,
    Until: 22:11,0.000,
    Until: 22:13,1.000,
    Until: 22:58,0.048,
    Until: 23:03,1.000,
    Until: 24:00,0.000,
    Through: 5/28,
    For: AllDays,
    Until: 10:54,0.000,
    Until: 10:56,1.000,
    Until: 11:41,0.048,
    Until: 11:46,1.000,
    Until: 16:51,0.000,
    Until: 16:53,1.000,
    Until: 17:38,0.048,
    Until: 17:43,1.000,
    Until: 20:24,0.000,
    Until: 20:26,1.000,
    Until: 21:11,0.048,
    Until: 21:16,1.000,
    Until: 21:18,0.000,
    Until: 21:20,1.000,
    Until: 22:05,0.048,
    Until: 22:10,1.000,
    Until: 24:00,0.000,
    Through: 5/29,
    For: AllDays,
    Until: 11:53,0.000,
    Until: 11:55,1.000,
    Until: 12:40,0.048,
    Until: 12:45,1.000,
    Until: 13:02,0.000,
    Until: 13:04,1.000,
    Until: 13:49,0.048,
    Until: 13:54,1.000,
    Until: 16:12,0.000,
    Until: 16:14,1.000,
    Until: 16:59,0.048,
    Until: 17:04,1.000,
    Until: 19:59,0.000,
    Until: 20:01,1.000,
    Until: 20:46,0.048,
    Until: 20:51,1.000,
    Until: 22:01,0.000,
    Until: 22:03,1.000,
    Until: 22:48,0.048,
    Until: 22:53,1.000,
    Until: 23:12,0.000,
    Until: 23:14,1.000,
    Until: 23:59,0.048,
    Until: 24:00,1.000,
    Through: 5/30,
    For: AllDays,
    Until: 00:04,1.000,
    Until: 24:00,0.000,
    Through: 5/31,
    For: AllDays,
    Until: 24:00,0.000,
    Through: 6/1,
    For: AllDays,
    Until: 08:46,0.000,
    Until: 08:48,1.000,
    Until: 09:33,0.048,
    Until: 09:38,1.000,
    Until: 10:35,0.000,
    Until: 10:37,1.000,
    Until: 11:22,0.048,
    Until: 11:27,1.000,
    Until: 12:21,0.000,
    Until: 12:23,1.000,
    Until: 13:08,0.048,
    Until: 13:13,1.000,
    Until: 14:38,0.000,
    Until: 14:40,1.000,
    Until: 15:25,0.048,
    Until: 15:30,1.000,
    Until: 19:34,0.000,
    Until: 19:36,1.000,
    Until: 20:21,0.048,
    Until: 20:26,1.000,
    Until: 22:11,0.000,
    Until: 22:13,1.000,
    Until: 22:58,0.048,
    Until: 23:03,1.000,
    Until: 24:00,0.000,
    Through: 6/2,
    For: AllDays,
    Until: 10:54,0.000,
    Until: 10:56,1.000,
    Until: 11:41,0.048,
    Until: 11:46,1.000,
    Until: 13:19,0.000,
    Until: 13:21,1.000,
    Until: 14:06,0.048,
    Until: 14:11,1.000,
    Until: 20:56,0.000,
    Until: 20:58,1.000,
    Until: 21:43,0.048,
    Until: 21:48,1.000,
    Until: 22:45,0.000,
    Until: 22:47,1.000,
    Until: 23:32,0.048,
    Until: 23:37,1.000,
    Until: 23:38,0.000,
    Until: 23:40,1.000,
    Until: 24:00,0.048,
    Through: 6/3,
    For: AllDays,
    Until: 00:25,0.048,
    Until: 00:30,1.000,
    Until: 12:52,0.000,
    Until: 12:54,1.000,
    Until: 13:39,0.048,
    Until: 13:44,1.000,
    Until: 16:40,0.000,
    Until: 16:42,1.000,
    Until: 17:27,0.048,
    Until: 17:32,1.000,
    Until: 21:13,0.000,
    Until: 21:15,1.000,
    Until: 22:00,0.048,
    Until: 22:05,1.000,
    Until: 22:40,0.000,
    Until: 22:42,1.000,
    Until: 23:27,0.048,
    Until: 23:32,1.000,
    Until: 24:00,0.000,
    Through: 6/4,
    For: AllDays,
    Until: 06:52,0.000,
    Until: 06:54,1.000,
    Until: 07:39,0.048,
    Until: 07:44,1.000,
    Until: 11:19,0.000,
    Until: 11:21,1.000,
    Until: 12:06,0.048,
    Until: 12:11,1.000,
    Until: 12:24,0.000,
    Until: 12:26,1.000,
    Until: 13:11,0.048,
    Until: 13:16,1.000,
    Until: 20:50,0.000,
    Until: 20:52,1.000,
    Until: 21:37,0.048,
    Until: 21:42,1.000,
    Until: 22:19,0.000,
    Until: 22:21,1.000,
    Until: 23:06,0.048,
    Until: 23:11,1.000,
    Until: 24:00,0.000,
    Through: 6/5,
    For: AllDays,
    Until: 12:24,0.000,
    Until: 12:26,1.000,
    Until: 13:11,0.048,
    Until: 13:16,1.000,
    Until: 16:28,0.000,
    Until: 16:30,1.000,
    Until: 17:15,0.048,
    Until: 17:20,1.000,
    Until: 18:09,0.000,
    Until: 18:11,1.000,
    Until: 18:56,0.048,
    Until: 19:01,1.000,
    Until: 19:54,0.000,
    Until: 19:56,1.000,
    Until: 20:41,0.048,
    Until: 20:46,1.000,
    Until: 22:08,0.000,
    Until: 22:10,1.000,
    Until: 22:55,0.048,
    Until: 23:00,1.000,
    Until: 24:00,0.000,
    Through: 6/6,
    For: AllDays,
    Until: 24:00,0.000,
    Through: 6/7,
    For: AllDays,
    Until: 24:00,0.000,
    Through: 6/8,
    For: AllDays,
    Until: 07:35,0.000,
    Until: 07:37,1.000,
    Until: 08:22,0.048,
    Until: 08:27,1.000,
    Until: 11:16,0.000,
    Until: 11:18,1.000,
    Until: 12:03,0.048,
    Until: 12:08,1.000,
    Until: 16:22,0.000,
    Until: 16:24,1.000,
    Until: 17:09,0.048,
    Until: 17:14,1.000,
    Until: 21:13,0.000,
    Until: 21:15,1.000,
    Until: 22:00,0.048,
    Until: 22:05,1.000,
    Until: 23:30,0.000,
    Until: 23:32,1.000,
    Until: 24:00,0.048,
    Through: 6/9,
    For: AllDays,
    Until: 00:17,0.048,
    Until: 00:22,1.000,
    Until: 12:38,0.000,
    Until: 12:40,1.000,
    Until: 13:25,0.048,
    Until: 13:30,1.000,
    Until: 19:35,0.000,
    Until: 19:37,1.000,
    Until: 20:22,0.048,
    Until: 20:27,1.000,
    Until: 24:00,0.000,
    Through: 6/10,
    For: AllDays,
    Until: 09:01,0.000,
    Until: 09:03,1.000,
    Until: 09:48,0.048,
    Until: 09:53,1.000,
    Until: 11:59,0.000,
    Until: 12:01,1.000,
    Until: 12:46,0.048,
    Until: 12:51,1.000,
    Until: 18:27,0.000,
    Until: 18:29,1.000,
    Until: 19:14,0.048,
    Until: 19:19,1.000,
    Until: 20:32,0.000,
    Until: 20:34,1.000,
    Until: 21:19,0.048,
    Until: 21:24,1.000,
    Until: 21:31,0.000,
    Until: 21:33,1.000,
    Until: 22:18,0.048,
    Until: 22:23,1.000,
    Until: 22:40,0.000,
    Until: 22:42,1.000,
    Until: 23:27,0.048,
    Until: 23:32,1.000,
    Until: 24:00,0.000,
    Through: 6/11,
    For: AllDays,
    Until: 08:28,0.000,
    Until: 08:30,1.000,
    Until: 09:15,0.048,
    Until: 09:20,1.000,
    Until: 12:39,0.000,
    Until: 12:41,1.000,
    Until: 13:26,0.048,
    Until: 13:31,1.000,
    Until: 13:52,0.000,
    Until: 13:54,1.000,
    Until: 14:39,0.048,
    Until: 14:44,1.000,
    Until: 14:50,0.000,
    Until: 14:52,1.000,
    Until: 15:37,0.048,
    Until: 15:42,1.000,
    Until: 20:12,0.000,
    Until: 20:14,1.000,
    Until: 20:59,0.048,
    Until: 21:04,1.000,
    Until: 21:09,0.000,
    Until: 21:11,1.000,
    Until: 21:56,0.048,
    Until: 22:01,1.000,
    Until: 22:12,0.000,
    Until: 22:14,1.000,
    Until: 22:59,0.048,
    Until: 23:04,1.000,
    Until: 23:12,0.000,
    Until: 23:14,1.000,
    Until: 23:59,0.048,
    Until: 24:00,1.000,
    Through: 6/12,
    For: AllDays,
    Until: 00:04,1.000,
    Until: 18:35,0.000,
    Until: 18:37,1.000,
    Until: 19:22,0.048,
    Until: 19:27,1.000,
    Until: 21:09,0.000,
    Until: 21:11,1.000,
    Until: 21:56,0.048,
    Until: 22:01,1.000,
    Until: 22:20,0.000,
    Until: 22:22,1.000,
    Until: 23:07,0.048,
    Until: 23:12,1.000,
    Until: 24:00,0.000,
    Through: 6/13,
    For: AllDays,
    Until: 24:00,0.000,
    Through: 6/14,
    For: AllDays,
    Until: 24:00,0.000,
    Through: 6/15,
    For: AllDays,
    Until: 13:49,0.000,
    Until: 13:51,1.000,
    Until: 14:36,0.048,
    Until: 14:41,1.000,
    Until: 21:19,0.000,
    Until: 21:21,1.000,
    Until: 22:06,0.048,
    Until: 22:11,1.000,
    Until: 24:00,0.000,
    Through: 6/16,
    For: AllDays,
    Until: 12:27,0.000,
    Until: 12:29,1.000,
    Until: 13:14,0.048,
    Until: 13:19,1.000,
    Until: 21:22,0.000,
    Until: 21:24,1.000,
    Until: 22:09,0.048,
    Until: 22:14,1.000,
    Until: 22:22,0.000,
    Until: 22:24,1.000,
    Until: 23:09,0.048,
    Until: 23:14,1.000,
    Until: 24:00,0.000,
    Through: 6/17,
    For: AllDays,
    Until: 08:42,0.000,
    Until: 08:44,1.000,
    Until: 09:29,0.048,
    Until: 09:34,1.000,
    Until: 12:14,0.000,
    Until: 12:16,1.000,
    Until: 13:01,0.048,
    Until: 13:06,1.000,
    Until: 18:27,0.000,
    Until: 18:29,1.000,
    Until: 19:14,0.048,
    Until: 19:19,1.000,
    Until: 22:54,0.000,
    Until: 22:56,1.000,
    Until: 23:41,0.048,
    Until: 23:46,1.000,
    Until: 23:47,0.000,
    Until: 23:49,1.000,
    Until: 24:00,0.048,
    Through: 6/18,
    For: AllDays,
    Until: 00:34,0.048,
    Until: 00:39,1.000,
    Until: 07:55,0.000,
    Until: 07:57,1.000,
    Until: 08:42,0.048,
    Until: 08:47,1.000,
    Until: 11:53,0.000,
    Until: 11:55,1.000,
    Until: 12:40,0.048,
    Until: 12:45,1.000,
    Until: 16:13,0.000,
    Until: 16:15,1.000,
    Until: 17:00,0.048,
    Until: 17:05,1.000,
    Until: 20:19,0.000,
    Until: 20:21,1.000,
    Until: 21:06,0.048,
    Until: 21:11,1.000,
    Until: 22:13,0.000,
    Until: 22:15,1.000,
    Until: 23:00,0.048,
    Until: 23:05,1.000,
    Until: 23:11,0.000,
    Until: 23:13,1.000,
    Until: 23:58,0.048,
    Until: 24:00,1.000,
    Through: 6/19,
    For: AllDays,
    Until: 00:03,1.000,
    Until: 11:00,0.000,
    Until: 11:02,1.000,
    Until: 11:47,0.048,
    Until: 11:52,1.000,
    Until: 12:04,0.000,
    Until: 12:06,1.000,
    Until: 12:51,0.048,
    Until: 12:56,1.000,
    Until: 17:35,0.000,
    Until: 17:37,1.000,
    Until: 18:22,0.048,
    Until: 18:27,1.000,
    Until: 20:47,0.000,
    Until: 20:49,1.000,
    Until: 21:34,0.048,
    Until: 21:39,1.000,
    Until: 22:42,0.000,
    Until: 22:44,1.000,
    Until: 23:29,0.048,
    Until: 23:34,1.000,
    Until: 24:00,0.000,
    Through: 6/20,
    For: AllDays,
    Until: 24:00,0.000,
    Through: 6/21,
    For: AllDays,
    Until: 24:00,0.000,
    Through: 6/22,
    For: AllDays,
    Until: 06:14,0.000,
    Until: 06:16,1.000,
    Until: 07:01,0.048,
    Until: 07:06,1.000,
    Until: 07:34,0.000,
    Until: 07:36,1.000,
    Until: 08:21,0.048,
    Until: 08:26,1.000,
    Until: 13:02,0.000,
    Until: 13:04,1.000,
    Until: 13:49,0.048,
    Until: 13:54,1.000,
    Until: 18:08,0.000,
    Until: 18:10,1.000,
    Until: 18:55,0.048,
    Until: 19:00,1.000,
    Until: 20:48,0.000,
    Until: 20:50,1.000,
    Until: 21:35,0.048,
    Until: 21:40,1.000,
    Until: 22:23,0.000,
    Until: 22:25,1.000,
    Until: 23:10,0.048,
    Until: 23:15,1.000,
    Until: 24:00,0.000,
    Through: 6/23,
    For: AllDays,
    Until: 12:32,0.000,
    Until: 12:34,1.000,
    Until: 13:19,0.048,
    Until: 13:24,1.000,
    Until: 20:43,0.000,
    Until: 20:45,1.000,
    Until: 21:30,0.048,
    Until: 21:35,1.000,
    Until: 24:00,0.000,
    Through: 6/24,
    For: AllDays,
    Until: 12:45,0.000,
    Until: 12:47,1.000,
    Until: 13:32,0.048,
    Until: 13:37,1.000,
    Until: 16:09,0.000,
    Until: 16:11,1.000,
    Until: 16:56,0.048,
    Until: 17:01,1.000,
    Until: 17:22,0.000,
    Until: 17:24,1.000,
    Until: 18:09,0.048,
    Until: 18:14,1.000,
    Until: 19:43,0.000,
    Until: 19:45,1.000,
    Until: 20:30,0.048,
    Until: 20:35,1.000,
    Until: 21:59,0.000,
    Until: 22:01,1.000,
    Until: 22:46,0.048,
    Until: 22:51,1.000,
    Until: 23:20,0.000,
    Until: 23:22,1.000,
    Until: 24:00,0.048,
    Through: 6/25,
    For: AllDays,
    Until: 00:07,0.048,
    Until: 00:12,1.000,
    Until: 12:20,0.000,
    Until: 12:22,1.000,
    Until: 13:07,0.048,
    Until: 13:12,1.000,
    Until: 18:22,0.000,
    Until: 18:24,1.000,
    Until: 19:09,0.048,
    Until: 19:14,1.000,
    Until: 22:01,0.000,
    Until: 22:03,1.000,
    Until: 22:48,0.048,
    Until: 22:53,1.000,
    Until: 22:54,0.000,
    Until: 22:56,1.000,
    Until: 23:41,0.048,
    Until: 23:46,1.000,
    Until: 24:00,0.000,
    Through: 6/26,
    For: AllDays,
    Until: 13:08,0.000,
    Until: 13:10,1.000,
    Until: 13:55,0.048,
    Until: 14:00,1.000,
    Until: 20:04,0.000,
    Until: 20:06,1.000,
    Until: 20:51,0.048,
    Until: 20:56,1.000,
    Until: 22:41,0.000,
    Until: 22:43,1.000,
    Until: 23:28,0.048,
    Until: 23:33,1.000,
    Until: 24:00,0.000,
    Through: 6/27,
    For: AllDays,
    Until: 24:00,0.000,
    Through: 6/28,
    For: AllDays,
    Until: 24:00,0.000,
    Through: 6/29,
    For: AllDays,
    Until: 08:49,0.000,
    Until: 08:51,1.000,
    Until: 09:36,0.048,
    Until: 09:41,1.000,
    Until: 12:35,0.000,
    Until: 12:37,1.000,
    Until: 13:22,0.048,
    Until: 13:27,1.000,
    Until: 13:29,0.000,
    Until: 13:31,1.000,
    Until: 14:16,0.048,
    Until: 14:21,1.000,
    Until: 20:17,0.000,
    Until: 20:19,1.000,
    Until: 21:04,0.048,
    Until: 21:09,1.000,
    Until: 22:25,0.000,
    Until: 22:27,1.000,
    Until: 23:12,0.048,
    Until: 23:17,1.000,
    Until: 24:00,0.000,
    Through: 6/30,
    For: AllDays,
    Until: 11:07,0.000,
    Until: 11:09,1.000,
    Until: 11:54,0.048,
    Until: 11:59,1.000,
    Until: 22:46,0.000,
    Until: 22:48,1.000,
    Until: 23:33,0.048,
    Until: 23:38,1.000,
    Until: 24:00,0.000,
    Through: 7/1,
    For: AllDays,
    Until: 07:50,0.000,
    Until: 07:52,1.000,
    Until: 08:37,0.048,
    Until: 08:42,1.000,
    Until: 10:57,0.000,
    Until: 10:59,1.000,
    Until: 11:44,0.048,
    Until: 11:49,1.000,
    Until: 13:15,0.000,
    Until: 13:17,1.000,
    Until: 14:02,0.048,
    Until: 14:07,1.000,
    Until: 16:31,0.000,
    Until: 16:33,1.000,
    Until: 17:18,0.048,
    Until: 17:23,1.000,
    Until: 21:29,0.000,
    Until: 21:31,1.000,
    Until: 22:16,0.048,
    Until: 22:21,1.000,
    Until: 24:00,0.000,
    Through: 7/2,
    For: AllDays,
    Until: 08:00,0.000,
    Until: 08:02,1.000,
    Until: 08:47,0.048,
    Until: 08:52,1.000,
    Until: 12:48,0.000,
    Until: 12:50,1.000,
    Until: 13:35,0.048,
    Until: 13:40,1.000,
    Until: 19:57,0.000,
    Until: 19:59,1.000,
    Until: 20:44,0.048,
    Until: 20:49,1.000,
    Until: 21:53,0.000,
    Until: 21:55,1.000,
    Until: 22:40,0.048,
    Until: 22:45,1.000,
    Until: 24:00,0.000,
    Through: 7/3,
    For: AllDays,
    Until: 10:35,0.000,
    Until: 10:37,1.000,
    Until: 11:22,0.048,
    Until: 11:27,1.000,
    Until: 11:39,0.000,
    Until: 11:41,1.000,
    Until: 12:26,0.048,
    Until: 12:31,1.000,
    Until: 13:12,0.000,
    Until: 13:14,1.000,
    Until: 13:59,0.048,
    Until: 14:04,1.000,
    Until: 20:49,0.000,
    Until: 20:51,1.000,
    Until: 21:36,0.048,
    Until: 21:41,1.000,
    Until: 21:44,0.000,
    Until: 21:46,1.000,
    Until: 22:31,0.048,
    Until: 22:36,1.000,
    Until: 24:00,0.000,
    Through: 7/4,
    For: AllDays,
    Until: 24:00,0.000,
    Through: 7/5,
    For: AllDays,
    Until: 24:00,0.000,
    Through: 7/6,
    For: AllDays,
    Until: 05:49,0.000,
    Until: 05:51,1.000,
    Until: 06:36,0.048,
    Until: 06:41,1.000,
    Until: 13:11,0.000,
    Until: 13:13,1.000,
    Until: 13:58,0.048,
    Until: 14:03,1.000,
    Until: 15:42,0.000,
    Until: 15:44,1.000,
    Until: 16:29,0.048,
    Until: 16:34,1.000,
    Until: 16:40,0.000,
    Until: 16:42,1.000,
    Until: 17:27,0.048,
    Until: 17:32,1.000,
    Until: 21:12,0.000,
    Until: 21:14,1.000,
    Until: 21:59,0.048,
    Until: 22:04,1.000,
    Until: 23:21,0.000,
    Until: 23:23,1.000,
    Until: 24:00,0.048,
    Through: 7/7,
    For: AllDays,
    Until: 00:08,0.048,
    Until: 00:13,1.000,
    Until: 12:33,0.000,
    Until: 12:35,1.000,
    Until: 13:20,0.048,
    Until: 13:25,1.000,
    Until: 15:27,0.000,
    Until: 15:29,1.000,
    Until: 16:14,0.048,
    Until: 16:19,1.000,
    Until: 19:45,0.000,
    Until: 19:47,1.000,
    Until: 20:32,0.048,
    Until: 20:37,1.000,
    Until: 22:07,0.000,
    Until: 22:09,1.000,
    Until: 22:54,0.048,
    Until: 22:59,1.000,
    Until: 23:20,0.000,
    Until: 23:22,1.000,
    Until: 24:00,0.048,
    Through: 7/8,
    For: AllDays,
    Until: 00:07,0.048,
    Until: 00:12,1.000,
    Until: 07:51,0.000,
    Until: 07:53,1.000,
    Until: 08:38,0.048,
    Until: 08:43,1.000,
    Until: 11:38,0.000,
    Until: 11:40,1.000,
    Until: 12:25,0.048,
    Until: 12:30,1.000,
    Until: 17:13,0.000,
    Until: 17:15,1.000,
    Until: 18:00,0.048,
    Until: 18:05,1.000,
    Until: 20:56,0.000,
    Until: 20:58,1.000,
    Until: 21:43,0.048,
    Until: 21:48,1.000,
    Until: 21:49,0.000,
    Until: 21:51,1.000,
    Until: 22:36,0.048,
    Until: 22:41,1.000,
    Until: 22:42,0.000,
    Until: 22:44,1.000,
    Until: 23:29,0.048,
    Until: 23:34,1.000,
    Until: 24:00,0.000,
    Through: 7/9,
    For: AllDays,
    Until: 08:35,0.000,
    Until: 08:37,1.000,
    Until: 09:22,0.048,
    Until: 09:27,1.000,
    Until: 12:35,0.000,
    Until: 12:37,1.000,
    Until: 13:22,0.048,
    Until: 13:27,1.000,
    Until: 16:24,0.000,
    Until: 16:26,1.000,
    Until: 17:11,0.048,
    Until: 17:16,1.000,
    Until: 17:31,0.000,
    Until: 17:33,1.000,
    Until: 18:18,0.048,
    Until: 18:23,1.000,
    Until: 20:51,0.000,
    Until: 20:53,1.000,
    Until: 21:38,0.048,
    Until: 21:43,1.000,
    Until: 22:46,0.000,
    Until: 22:48,1.000,
    Until: 23:33,0.048,
    Until: 23:38,1.000,
    Until: 24:00,0.000,
    Through: 7/10,
    For: AllDays,
    Until: 07:04,0.000,
    Until: 07:06,1.000,
    Until: 07:51,0.048,
    Until: 07:56,1.000,
    Until: 10:39,0.000,
    Until: 10:41,1.000,
    Until: 11:26,0.048,
    Until: 11:31,1.000,
    Until: 17:57,0.000,
    Until: 17:59,1.000,
    Until: 18:44,0.048,
    Until: 18:49,1.000,
    Until: 20:54,0.000,
    Until: 20:56,1.000,
    Until: 21:41,0.048,
    Until: 21:46,1.000,
    Until: 22:33,0.000,
    Until: 22:35,1.000,
    Until: 23:20,0.048,
    Until: 23:25,1.000,
    Until: 23:26,0.000,
    Until: 23:28,1.000,
    Until: 24:00,0.048,
    Through: 7/11,
    For: AllDays,
    Until: 00:13,0.048,
    Until: 00:18,1.000,
    Until: 24:00,0.000,
    Through: 7/12,
    For: AllDays,
    Until: 24:00,0.000,
    Through: 7/13,
    For: AllDays,
    Until: 06:10,0.000,
    Until: 06:12,1.000,
    Until: 06:57,0.048,
    Until: 07:02,1.000,
    Until: 10:49,0.000,
    Until: 10:51,1.000,
    Until: 11:36,0.048,
    Until: 11:41,1.000,
    Until: 12:36,0.000,
    Until: 12:38,1.000,
    Until: 13:23,0.048,
    Until: 13:28,1.000,
    Until: 13:42,0.000,
    Until: 13:44,1.000,
    Until: 14:29,0.048,
    Until: 14:34,1.000,
    Until: 17:35,0.000,
    Until: 17:37,1.000,
    Until: 18:22,0.048,
    Until: 18:27,1.000,
    Until: 20:10,0.000,
    Until: 20:12,1.000,
    Until: 20:57,0.048,
    Until: 21:02,1.000,
    Until: 21:03,0.000,
    Until: 21:05,1.000,
    Until: 21:50,0.048,
    Until: 21:55,1.000,
    Until: 23:09,0.000,
    Until: 23:11,1.000,
    Until: 23:56,0.048,
    Until: 24:00,1.000,
    Through: 7/14,
    For: AllDays,
    Until: 00:01,1.000,
    Until: 06:10,0.000,
    Until: 06:12,1.000,
    Until: 06:57,0.048,
    Until: 07:02,1.000,
    Until: 11:44,0.000,
    Until: 11:46,1.000,
    Until: 12:31,0.048,
    Until: 12:36,1.000,
    Until: 17:26,0.000,
    Until: 17:28,1.000,
    Until: 18:13,0.048,
    Until: 18:18,1.000,
    Until: 20:10,0.000,
    Until: 20:12,1.000,
    Until: 20:57,0.048,
    Until: 21:02,1.000,
    Until: 21:06,0.000,
    Until: 21:08,1.000,
    Until: 21:53,0.048,
    Until: 21:58,1.000,
    Until: 22:13,0.000,
    Until: 22:15,1.000,
    Until: 23:00,0.048,
    Until: 23:05,1.000,
    Until: 24:00,0.000,
    Through: 7/15,
    For: AllDays,
    Until: 13:04,0.000,
    Until: 13:06,1.000,
    Until: 13:51,0.048,
    Until: 13:56,1.000,
    Until: 16:05,0.000,
    Until: 16:07,1.000,
    Until: 16:52,0.048,
    Until: 16:57,1.000,
    Until: 18:04,0.000,
    Until: 18:06,1.000,
    Until: 18:51,0.048,
    Until: 18:56,1.000,
    Until: 20:54,0.000,
    Until: 20:56,1.000,
    Until: 21:41,0.048,
    Until: 21:46,1.000,
    Until: 23:12,0.000,
    Until: 23:14,1.000,
    Until: 23:59,0.048,
    Until: 24:00,1.000,
    Through: 7/16,
    For: AllDays,
    Until: 00:04,1.000,
    Until: 11:56,0.000,
    Until: 11:58,1.000,
    Until: 12:43,0.048,
    Until: 12:48,1.000,
    Until: 13:13,0.000,
    Until: 13:15,1.000,
    Until: 14:00,0.048,
    Until: 14:05,1.000,
    Until: 19:59,0.000,
    Until: 20:01,1.000,
    Until: 20:46,0.048,
    Until: 20:51,1.000,
    Until: 21:01,0.000,
    Until: 21:03,1.000,
    Until: 21:48,0.048,
    Until: 21:53,1.000,
    Until: 22:01,0.000,
    Until: 22:03,1.000,
    Until: 22:48,0.048,
    Until: 22:53,1.000,
    Until: 22:54,0.000,
    Until: 22:56,1.000,
    Until: 23:41,0.048,
    Until: 23:46,1.000,
    Until: 24:00,0.000,
    Through: 7/17,
    For: AllDays,
    Until: 12:15,0.000,
    Until: 12:17,1.000,
    Until: 13:02,0.048,
    Until: 13:07,1.000,
    Until: 18:08,0.000,
    Until: 18:10,1.000,
    Until: 18:55,0.048,
    Until: 19:00,1.000,
    Until: 19:27,0.000,
    Until: 19:29,1.000,
    Until: 20:14,0.048,
    Until: 20:19,1.000,
    Until: 20:30,0.000,
    Until: 20:32,1.000,
    Until: 21:17,0.048,
    Until: 21:22,1.000,
    Until: 21:23,0.000,
    Until: 21:25,1.000,
    Until: 22:10,0.048,
    Until: 22:15,1.000,
    Until: 22:47,0.000,
    Until: 22:49,1.000,
    Until: 23:34,0.048,
    Until: 23:39,1.000,
    Until: 24:00,0.000,
    Through: 7/18,
    For: AllDays,
    Until: 24:00,0.000,
    Through: 7/19,
    For: AllDays,
    Until: 24:00,0.000,
    Through: 7/20,
    For: AllDays,
    Until: 11:01,0.000,
    Until: 11:03,1.000,
    Until: 11:48,0.048,
    Until: 11:53,1.000,
    Until: 12:17,0.000,
    Until: 12:19,1.000,
    Until: 13:04,0.048,
    Until: 13:09,1.000,
    Until: 15:55,0.000,
    Until: 15:57,1.000,
    Until: 16:42,0.048,
    Until: 16:47,1.000,
    Until: 18:01,0.000,
    Until: 18:03,1.000,
    Until: 18:48,0.048,
    Until: 18:53,1.000,
    Until: 20:44,0.000,
    Until: 20:46,1.000,
    Until: 21:31,0.048,
    Until: 21:36,1.000,
    Until: 22:30,0.000,
    Until: 22:32,1.000,
    Until: 23:17,0.048,
    Until: 23:22,1.000,
    Until: 23:23,0.000,
    Until: 23:25,1.000,
    Until: 24:00,0.048,
    Through: 7/21,
    For: AllDays,
    Until: 00:10,0.048,
    Until: 00:15,1.000,
    Until: 07:06,0.000,
    Until: 07:08,1.000,
    Until: 07:53,0.048,
    Until: 07:58,1.000,
    Until: 11:28,0.000,
    Until: 11:30,1.000,
    Until: 12:15,0.048,
    Until: 12:20,1.000,
    Until: 18:21,0.000,
    Until: 18:23,1.000,
    Until: 19:08,0.048,
    Until: 19:13,1.000,
    Until: 21:15,0.000,
    Until: 21:17,1.000,
    Until: 22:02,0.048,
    Until: 22:07,1.000,
    Until: 23:15,0.000,
    Until: 23:17,1.000,
    Until: 24:00,0.048,
    Through: 7/22,
    For: AllDays,
    Until: 00:02,0.048,
    Until: 00:07,1.000,
    Until: 11:29,0.000,
    Until: 11:31,1.000,
    Until: 12:16,0.048,
    Until: 12:21,1.000,
    Until: 16:10,0.000,
    Until: 16:12,1.000,
    Until: 16:57,0.048,
    Until: 17:02,1.000,
    Until: 21:53,0.000,
    Until: 21:55,1.000,
    Until: 22:40,0.048,
    Until: 22:45,1.000,
    Until: 23:00,0.000,
    Until: 23:02,1.000,
    Until: 23:47,0.048,
    Until: 23:52,1.000,
    Until: 24:00,0.000,
    Through: 7/23,
    For: AllDays,
    Until: 12:35,0.000,
    Until: 12:37,1.000,
    Until: 13:22,0.048,
    Until: 13:27,1.000,
    Until: 16:52,0.000,
    Until: 16:54,1.000,
    Until: 17:39,0.048,
    Until: 17:44,1.000,
    Until: 19:20,0.000,
    Until: 19:22,1.000,
    Until: 20:07,0.048,
    Until: 20:12,1.000,
    Until: 20:15,0.000,
    Until: 20:17,1.000,
    Until: 21:02,0.048,
    Until: 21:07,1.000,
    Until: 21:31,0.000,
    Until: 21:33,1.000,
    Until: 22:18,0.048,
    Until: 22:23,1.000,
    Until: 24:00,0.000,
    Through: 7/24,
    For: AllDays,
    Until: 07:30,0.000,
    Until: 07:32,1.000,
    Until: 08:17,0.048,
    Until: 08:22,1.000,
    Until: 12:50,0.000,
    Until: 12:52,1.000,
    Until: 13:37,0.048,
    Until: 13:42,1.000,
    Until: 14:14,0.000,
    Until: 14:16,1.000,
    Until: 15:01,0.048,
    Until: 15:06,1.000,
    Until: 15:46,0.000,
    Until: 15:48,1.000,
    Until: 16:33,0.048,
    Until: 16:38,1.000,
    Until: 20:55,0.000,
    Until: 20:57,1.000,
    Until: 21:42,0.048,
    Until: 21:47,1.000,
    Until: 21:49,0.000,
    Until: 21:51,1.000,
    Until: 22:36,0.048,
    Until: 22:41,1.000,
    Until: 22:42,0.000,
    Until: 22:44,1.000,
    Until: 23:29,0.048,
    Until: 23:34,1.000,
    Until: 24:00,0.000,
    Through: 7/25,
    For: AllDays,
    Until: 24:00,0.000,
    Through: 7/26,
    For: AllDays,
    Until: 24:00,0.000,
    Through: 7/27,
    For: AllDays,
    Until: 07:35,0.000,
    Until: 07:37,1.000,
    Until: 08:22,0.048,
    Until: 08:27,1.000,
    Until: 10:22,0.000,
    Until: 10:24,1.000,
    Until: 11:09,0.048,
    Until: 11:14,1.000,
    Until: 13:18,0.000,
    Until: 13:20,1.000,
    Until: 14:05,0.048,
    Until: 14:10,1.000,
    Until: 17:11,0.000,
    Until: 17:13,1.000,
    Until: 17:58,0.048,
    Until: 18:03,1.000,
    Until: 18:11,0.000,
    Until: 18:13,1.000,
    Until: 18:58,0.048,
    Until: 19:03,1.000,
    Until: 19:42,0.000,
    Until: 19:44,1.000,
    Until: 20:29,0.048,
    Until: 20:34,1.000,
    Until: 21:33,0.000,
    Until: 21:35,1.000,
    Until: 22:20,0.048,
    Until: 22:25,1.000,
    Until: 23:00,0.000,
    Until: 23:02,1.000,
    Until: 23:47,0.048,
    Until: 23:52,1.000,
    Until: 24:00,0.000,
    Through: 7/28,
    For: AllDays,
    Until: 06:03,0.000,
    Until: 06:05,1.000,
    Until: 06:50,0.048,
    Until: 06:55,1.000,
    Until: 16:01,0.000,
    Until: 16:03,1.000,
    Until: 16:48,0.048,
    Until: 16:53,1.000,
    Until: 17:09,0.000,
    Until: 17:11,1.000,
    Until: 17:56,0.048,
    Until: 18:01,1.000,
    Until: 20:28,0.000,
    Until: 20:30,1.000,
    Until: 21:15,0.048,
    Until: 21:20,1.000,
    Until: 21:55,0.000,
    Until: 21:57,1.000,
    Until: 22:42,0.048,
    Until: 22:47,1.000,
    Until: 22:48,0.000,
    Until: 22:50,1.000,
    Until: 23:35,0.048,
    Until: 23:40,1.000,
    Until: 23:41,0.000,
    Until: 23:43,1.000,
    Until: 24:00,0.048,
    Through: 7/29,
    For: AllDays,
    Until: 00:28,0.048,
    Until: 00:33,1.000,
    Until: 06:05,0.000,
    Until: 06:07,1.000,
    Until: 06:52,0.048,
    Until: 06:57,1.000,
    Until: 13:47,0.000,
    Until: 13:49,1.000,
    Until: 14:34,0.048,
    Until: 14:39,1.000,
    Until: 16:37,0.000,
    Until: 16:39,1.000,
    Until: 17:24,0.048,
    Until: 17:29,1.000,
    Until: 21:39,0.000,
    Until: 21:41,1.000,
    Until: 22:26,0.048,
    Until: 22:31,1.000,
    Until: 22:32,0.000,
    Until: 22:34,1.000,
    Until: 23:19,0.048,
    Until: 23:24,1.000,
    Until: 23:52,0.000,
    Until: 23:54,1.000,
    Until: 24:00,0.048,
    Through: 7/30,
    For: AllDays,
    Until: 00:39,0.048,
    Until: 00:44,1.000,
    Until: 06:59,0.000,
    Until: 07:01,1.000,
    Until: 07:46,0.048,
    Until: 07:51,1.000,
    Until: 11:29,0.000,
    Until: 11:31,1.000,
    Until: 12:16,0.048,
    Until: 12:21,1.000,
    Until: 13:05,0.000,
    Until: 13:07,1.000,
    Until: 13:52,0.048,
    Until: 13:57,1.000,
    Until: 15:14,0.000,
    Until: 15:16,1.000,
    Until: 16:01,0.048,
    Until: 16:06,1.000,
    Until: 19:27,0.000,
    Until: 19:29,1.000,
    Until: 20:14,0.048,
    Until: 20:19,1.000,
    Until: 21:02,0.000,
    Until: 21:04,1.000,
    Until: 21:49,0.048,
    Until: 21:54,1.000,
    Until: 22:44,0.000,
    Until: 22:46,1.000,
    Until: 23:31,0.048,
    Until: 23:36,1.000,
    Until: 24:00,0.000,
    Through: 7/31,
    For: AllDays,
    Until: 06:58,0.000,
    Until: 07:00,1.000,
    Until: 07:45,0.048,
    Until: 07:50,1.000,
    Until: 11:44,0.000,
    Until: 11:46,1.000,
    Until: 12:31,0.048,
    Until: 12:36,1.000,
    Until: 13:17,0.000,
    Until: 13:19,1.000,
    Until: 14:04,0.048,
    Until: 14:09,1.000,
    Until: 17:00,0.000,
    Until: 17:02,1.000,
    Until: 17:47,0.048,
    Until: 17:52,1.000,
    Until: 19:56,0.000,
    Until: 19:58,1.000,
    Until: 20:43,0.048,
    Until: 20:48,1.000,
    Until: 21:25,0.000,
    Until: 21:27,1.000,
    Until: 22:12,0.048,
    Until: 22:17,1.000,
    Until: 23:42,0.000,
    Until: 23:44,1.000,
    Until: 24:00,0.048,
    Through: 8/1,
    For: AllDays,
    Until: 00:29,0.048,
    Until: 00:34,1.000,
    Until: 24:00,0.000,
    Through: 8/2,
    For: AllDays,
    Until: 24:00,0.000,
    Through: 8/3,
    For: AllDays,
    Until: 07:31,0.000,
    Until: 07:33,1.000,
    Until: 08:18,0.048,
    Until: 08:23,1.000,
    Until: 10:15,0.000,
    Until: 10:17,1.000,
    Until: 11:02,0.048,
    Until: 11:07,1.000,
    Until: 11:55,0.000,
    Until: 11:57,1.000,
    Until: 12:42,0.048,
    Until: 12:47,1.000,
    Until: 13:11,0.000,
    Until: 13:13,1.000,
    Until: 13:58,0.048,
    Until: 14:03,1.000,
    Until: 18:14,0.000,
    Until: 18:16,1.000,
    Until: 19:01,0.048,
    Until: 19:06,1.000,
    Until: 21:13,0.000,
    Until: 21:15,1.000,
    Until: 22:00,0.048,
    Until: 22:05,1.000,
    Until: 22:08,0.000,
    Until: 22:10,1.000,
    Until: 22:55,0.048,
    Until: 23:00,1.000,
    Until: 24:00,0.000,
    Through: 8/4,
    For: AllDays,
    Until: 08:44,0.000,
    Until: 08:46,1.000,
    Until: 09:31,0.048,
    Until: 09:36,1.000,
    Until: 10:53,0.000,
    Until: 10:55,1.000,
    Until: 11:40,0.048,
    Until: 11:45,1.000,
    Until: 13:51,0.000,
    Until: 13:53,1.000,
    Until: 14:38,0.048,
    Until: 14:43,1.000,
    Until: 18:01,0.000,
    Until: 18:03,1.000,
    Until: 18:48,0.048,
    Until: 18:53,1.000,
    Until: 20:08,0.000,
    Until: 20:10,1.000,
    Until: 20:55,0.048,
    Until: 21:00,1.000,
    Until: 21:35,0.000,
    Until: 21:37,1.000,
    Until: 22:22,0.048,
    Until: 22:27,1.000,
    Until: 24:00,0.000,
    Through: 8/5,
    For: AllDays,
    Until: 14:45,0.000,
    Until: 14:47,1.000,
    Until: 15:32,0.048,
    Until: 15:37,1.000,
    Until: 18:49,0.000,
    Until: 18:51,1.000,
    Until: 19:36,0.048,
    Until: 19:41,1.000,
    Until: 21:40,0.000,
    Until: 21:42,1.000,
    Until: 22:27,0.048,
    Until: 22:32,1.000,
    Until: 22:55,0.000,
    Until: 22:57,1.000,
    Until: 23:42,0.048,
    Until: 23:47,1.000,
    Until: 24:00,0.000,
    Through: 8/6,
    For: AllDays,
    Until: 11:45,0.000,
    Until: 11:47,1.000,
    Until: 12:32,0.048,
    Until: 12:37,1.000,
    Until: 21:36,0.000,
    Until: 21:38,1.000,
    Until: 22:23,0.048,
    Until: 22:28,1.000,
    Until: 22:38,0.000,
    Until: 22:40,1.000,
    Until: 23:25,0.048,
    Until: 23:30,1.000,
    Until: 24:00,0.000,
    Through: 8/7,
    For: AllDays,
    Until: 17:08,0.000,
    Until: 17:10,1.000,
    Until: 17:55,0.048,
    Until: 18:00,1.000,
    Until: 18:45,0.000,
    Until: 18:47,1.000,
    Until: 19:32,0.048,
    Until: 19:37,1.000,
    Until: 21:27,0.000,
    Until: 21:29,1.000,
    Until: 22:14,0.048,
    Until: 22:19,1.000,
    Until: 24:00,0.000,
    Through: 8/8,
    For: AllDays,
    Until: 24:00,0.000,
    Through: 8/9,
    For: AllDays,
    Until: 24:00,0.000,
    Through: 8/10,
    For: AllDays,
    Until: 12:06,0.000,
    Until: 12:08,1.000,
    Until: 12:53,0.048,
    Until: 12:58,1.000,
    Until: 16:49,0.000,
    Until: 16:51,1.000,
    Until: 17:36,0.048,
    Until: 17:41,1.000,
    Until: 20:44,0.000,
    Until: 20:46,1.000,
    Until: 21:31,0.048,
    Until: 21:36,1.000,
    Until: 22:58,0.000,
    Until: 23:00,1.000,
    Until: 23:45,0.048,
    Until: 23:50,1.000,
    Until: 24:00,0.000,
    Through: 8/11,
    For: AllDays,
    Until: 13:24,0.000,
    Until: 13:26,1.000,
    Until: 14:11,0.048,
    Until: 14:16,1.000,
    Until: 15:14,0.000,
    Until: 15:16,1.000,
    Until: 16:01,0.048,
    Until: 16:06,1.000,
    Until: 17:03,0.000,
    Until: 17:05,1.000,
    Until: 17:50,0.048,
    Until: 17:55,1.000,
    Until: 20:23,0.000,
    Until: 20:25,1.000,
    Until: 21:10,0.048,
    Until: 21:15,1.000,
    Until: 21:18,0.000,
    Until: 21:20,1.000,
    Until: 22:05,0.048,
    Until: 22:10,1.000,
    Until: 24:00,0.000,
    Through: 8/12,
    For: AllDays,
    Until: 13:41,0.000,
    Until: 13:43,1.000,
    Until: 14:28,0.048,
    Until: 14:33,1.000,
    Until: 16:20,0.000,
    Until: 16:22,1.000,
    Until: 17:07,0.048,
    Until: 17:12,1.000,
    Until: 19:54,0.000,
    Until: 19:56,1.000,
    Until: 20:41,0.048,
    Until: 20:46,1.000,
    Until: 22:23,0.000,
    Until: 22:25,1.000,
    Until: 23:10,0.048,
    Until: 23:15,1.000,
    Until: 24:00,0.000,
    Through: 8/13,
    For: AllDays,
    Until: 06:53,0.000,
    Until: 06:55,1.000,
    Until: 07:40,0.048,
    Until: 07:45,1.000,
    Until: 11:10,0.000,
    Until: 11:12,1.000,
    Until: 11:57,0.048,
    Until: 12:02,1.000,
    Until: 13:58,0.000,
    Until: 14:00,1.000,
    Until: 14:45,0.048,
    Until: 14:50,1.000,
    Until: 21:01,0.000,
    Until: 21:03,1.000,
    Until: 21:48,0.048,
    Until: 21:53,1.000,
    Until: 21:54,0.000,
    Until: 21:56,1.000,
    Until: 22:41,0.048,
    Until: 22:46,1.000,
    Until: 22:55,0.000,
    Until: 22:57,1.000,
    Until: 23:42,0.048,
    Until: 23:47,1.000,
    Until: 24:00,0.000,
    Through: 8/14,
    For: AllDays,
    Until: 16:57,0.000,
    Until: 16:59,1.000,
    Until: 17:44,0.048,
    Until: 17:49,1.000,
    Until: 18:12,0.000,
    Until: 18:14,1.000,
    Until: 18:59,0.048,
    Until: 19:04,1.000,
    Until: 20:53,0.000,
    Until: 20:55,1.000,
    Until: 21:40,0.048,
    Until: 21:45,1.000,
    Until: 21:47,0.000,
    Until: 21:49,1.000,
    Until: 22:34,0.048,
    Until: 22:39,1.000,
    Until: 24:00,0.000,
    Through: 8/15,
    For: AllDays,
    Until: 24:00,0.000,
    Through: 8/16,
    For: AllDays,
    Until: 24:00,0.000,
    Through: 8/17,
    For: AllDays,
    Until: 12:44,0.000,
    Until: 12:46,1.000,
    Until: 13:31,0.048,
    Until: 13:36,1.000,
    Until: 21:24,0.000,
    Until: 21:26,1.000,
    Until: 22:11,0.048,
    Until: 22:16,1.000,
    Until: 24:00,0.000,
    Through: 8/18,
    For: AllDays,
    Until: 08:07,0.000,
    Until: 08:09,1.000,
    Until: 08:54,0.048,
    Until: 08:59,1.000,
    Until: 10:25,0.000,
    Until: 10:27,1.000,
    Until: 11:12,0.048,
    Until: 11:17,1.000,
    Until: 17:22,0.000,
    Until: 17:24,1.000,
    Until: 18:09,0.048,
    Until: 18:14,1.000,
    Until: 21:15,0.000,
    Until: 21:17,1.000,
    Until: 22:02,0.048,
    Until: 22:07,1.000,
    Until: 22:51,0.000,
    Until: 22:53,1.000,
    Until: 23:38,0.048,
    Until: 23:43,1.000,
    Until: 24:00,0.000,
    Through: 8/19,
    For: AllDays,
    Until: 05:08,0.000,
    Until: 05:10,1.000,
    Until: 05:55,0.048,
    Until: 06:00,1.000,
    Until: 10:03,0.000,
    Until: 10:05,1.000,
    Until: 10:50,0.048,
    Until: 10:55,1.000,
    Until: 13:39,0.000,
    Until: 13:41,1.000,
    Until: 14:26,0.048,
    Until: 14:31,1.000,
    Until: 18:15,0.000,
    Until: 18:17,1.000,
    Until: 19:02,0.048,
    Until: 19:07,1.000,
    Until: 21:30,0.000,
    Until: 21:32,1.000,
    Until: 22:17,0.048,
    Until: 22:22,1.000,
    Until: 22:32,0.000,
    Until: 22:34,1.000,
    Until: 23:19,0.048,
    Until: 23:24,1.000,
    Until: 24:00,0.000,
    Through: 8/20,
    For: AllDays,
    Until: 11:07,0.000,
    Until: 11:09,1.000,
    Until: 11:54,0.048,
    Until: 11:59,1.000,
    Until: 21:14,0.000,
    Until: 21:16,1.000,
    Until: 22:01,0.048,
    Until: 22:06,1.000,
    Until: 22:07,0.000,
    Until: 22:09,1.000,
    Until: 22:54,0.048,
    Until: 22:59,1.000,
    Until: 24:00,0.000,
    Through: 8/21,
    For: AllDays,
    Until: 08:44,0.000,
    Until: 08:46,1.000,
    Until: 09:31,0.048,
    Until: 09:36,1.000,
    Until: 12:57,0.000,
    Until: 12:59,1.000,
    Until: 13:44,0.048,
    Until: 13:49,1.000,
    Until: 15:37,0.000,
    Until: 15:39,1.000,
    Until: 16:24,0.048,
    Until: 16:29,1.000,
    Until: 20:46,0.000,
    Until: 20:48,1.000,
    Until: 21:33,0.048,
    Until: 21:38,1.000,
    Until: 22:47,0.000,
    Until: 22:49,1.000,
    Until: 23:34,0.048,
    Until: 23:39,1.000,
    Until: 24:00,0.000,
    Through: 8/22,
    For: AllDays,
    Until: 24:00,0.000,
    Through: 8/23,
    For: AllDays,
    Until: 24:00,0.000,
    Through: 8/24,
    For: AllDays,
    Until: 08:10,0.000,
    Until: 08:12,1.000,
    Until: 08:57,0.048,
    Until: 09:02,1.000,
    Until: 11:42,0.000,
    Until: 11:44,1.000,
    Until: 12:29,0.048,
    Until: 12:34,1.000,
    Until: 21:19,0.000,
    Until: 21:21,1.000,
    Until: 22:06,0.048,
    Until: 22:11,1.000,
    Until: 24:00,0.000,
    Through: 8/25,
    For: AllDays,
    Until: 07:30,0.000,
    Until: 07:32,1.000,
    Until: 08:17,0.048,
    Until: 08:22,1.000,
    Until: 12:01,0.000,
    Until: 12:03,1.000,
    Until: 12:48,0.048,
    Until: 12:53,1.000,
    Until: 17:54,0.000,
    Until: 17:56,1.000,
    Until: 18:41,0.048,
    Until: 18:46,1.000,
    Until: 21:29,0.000,
    Until: 21:31,1.000,
    Until: 22:16,0.048,
    Until: 22:21,1.000,
    Until: 23:12,0.000,
    Until: 23:14,1.000,
    Until: 23:59,0.048,
    Until: 24:00,1.000,
    Through: 8/26,
    For: AllDays,
    Until: 00:04,1.000,
    Until: 11:57,0.000,
    Until: 11:59,1.000,
    Until: 12:44,0.048,
    Until: 12:49,1.000,
    Until: 12:56,0.000,
    Until: 12:58,1.000,
    Until: 13:43,0.048,
    Until: 13:48,1.000,
    Until: 19:55,0.000,
    Until: 19:57,1.000,
    Until: 20:42,0.048,
    Until: 20:47,1.000,
    Until: 21:03,0.000,
    Until: 21:05,1.000,
    Until: 21:50,0.048,
    Until: 21:55,1.000,
    Until: 24:00,0.000,
    Through: 8/27,
    For: AllDays,
    Until: 11:35,0.000,
    Until: 11:37,1.000,
    Until: 12:22,0.048,
    Until: 12:27,1.000,
    Until: 16:30,0.000,
    Until: 16:32,1.000,
    Until: 17:17,0.048,
    Until: 17:22,1.000,
    Until: 21:15,0.000,
    Until: 21:17,1.000,
    Until: 22:02,0.048,
    Until: 22:07,1.000,
    Until: 22:08,0.000,
    Until: 22:10,1.000,
    Until: 22:55,0.048,
    Until: 23:00,1.000,
    Until: 23:12,0.000,
    Until: 23:14,1.000,
    Until: 23:59,0.048,
    Until: 24:00,1.000,
    Through: 8/28,
    For: AllDays,
    Until: 00:04,1.000,
    Until: 13:39,0.000,
    Until: 13:41,1.000,
    Until: 14:26,0.048,
    Until: 14:31,1.000,
    Until: 15:28,0.000,
    Until: 15:30,1.000,
    Until: 16:15,0.048,
    Until: 16:20,1.000,
    Until: 19:51,0.000,
    Until: 19:53,1.000,
    Until: 20:38,0.048,
    Until: 20:43,1.000,
    Until: 22:41,0.000,
    Until: 22:43,1.000,
    Until: 23:28,0.048,
    Until: 23:33,1.000,
    Until: 24:00,0.000,
    Through: 8/29,
    For: AllDays,
    Until: 24:00,0.000,
    Through: 8/30,
    For: AllDays,
    Until: 24:00,0.000,
    Through: 8/31,
    For: AllDays,
    Until: 12:07,0.000,
    Until: 12:09,1.000,
    Until: 12:54,0.048,
    Until: 12:59,1.000,
    Until: 13:17,0.000,
    Until: 13:19,1.000,
    Until: 14:04,0.048,
    Until: 14:09,1.000,
    Until: 17:12,0.000,
    Until: 17:14,1.000,
    Until: 17:59,0.048,
    Until: 18:04,1.000,
    Until: 22:11,0.000,
    Until: 22:13,1.000,
    Until: 22:58,0.048,
    Until: 23:03,1.000,
    Until: 24:00,0.000,
    Through: 9/1,
    For: AllDays,
    Until: 05:20,0.000,
    Until: 05:22,1.000,
    Until: 06:07,0.048,
    Until: 06:12,1.000,
    Until: 10:33,0.000,
    Until: 10:35,1.000,
    Until: 11:20,0.048,
    Until: 11:25,1.000,
    Until: 12:48,0.000,
    Until: 12:50,1.000,
    Until: 13:35,0.048,
    Until: 13:40,1.000,
    Until: 16:33,0.000,
    Until: 16:35,1.000,
    Until: 17:20,0.048,
    Until: 17:25,1.000,
    Until: 20:41,0.000,
    Until: 20:43,1.000,
    Until: 21:28,0.048,
    Until: 21:33,1.000,
    Until: 21:59,0.000,
    Until: 22:01,1.000,
    Until: 22:46,0.048,
    Until: 22:51,1.000,
    Until: 24:00,0.000,
    Through: 9/2,
    For: AllDays,
    Until: 07:32,0.000,
    Until: 07:34,1.000,
    Until: 08:19,0.048,
    Until: 08:24,1.000,
    Until: 11:57,0.000,
    Until: 11:59,1.000,
    Until: 12:44,0.048,
    Until: 12:49,1.000,
    Until: 17:02,0.000,
    Until: 17:04,1.000,
    Until: 17:49,0.048,
    Until: 17:54,1.000,
    Until: 18:05,0.000,
    Until: 18:07,1.000,
    Until: 18:52,0.048,
    Until: 18:57,1.000,
    Until: 19:50,0.000,
    Until: 19:52,1.000,
    Until: 20:37,0.048,
    Until: 20:42,1.000,
    Until: 22:08,0.000,
    Until: 22:10,1.000,
    Until: 22:55,0.048,
    Until: 23:00,1.000,
    Until: 24:00,0.000,
    Through: 9/3,
    For: AllDays,
    Until: 06:26,0.000,
    Until: 06:28,1.000,
    Until: 07:13,0.048,
    Until: 07:18,1.000,
    Until: 11:17,0.000,
    Until: 11:19,1.000,
    Until: 12:04,0.048,
    Until: 12:09,1.000,
    Until: 13:04,0.000,
    Until: 13:06,1.000,
    Until: 13:51,0.048,
    Until: 13:56,1.000,
    Until: 17:08,0.000,
    Until: 17:10,1.000,
    Until: 17:55,0.048,
    Until: 18:00,1.000,
    Until: 19:32,0.000,
    Until: 19:34,1.000,
    Until: 20:19,0.048,
    Until: 20:24,1.000,
    Until: 21:45,0.000,
    Until: 21:47,1.000,
    Until: 22:32,0.048,
    Until: 22:37,1.000,
    Until: 24:00,0.000,
    Through: 9/4,
    For: AllDays,
    Until: 12:08,0.000,
    Until: 12:10,1.000,
    Until: 12:55,0.048,
    Until: 13:00,1.000,
    Until: 13:45,0.000,
    Until: 13:47,1.000,
    Until: 14:32,0.048,
    Until: 14:37,1.000,
    Until: 15:50,0.000,
    Until: 15:52,1.000,
    Until: 16:37,0.048,
    Until: 16:42,1.000,
    Until: 19:31,0.000,
    Until: 19:33,1.000,
    Until: 20:18,0.048,
    Until: 20:23,1.000,
    Until: 21:27,0.000,
    Until: 21:29,1.000,
    Until: 22:14,0.048,
    Until: 22:19,1.000,
    Until: 24:00,0.000,
    Through: 9/5,
    For: AllDays,
    Until: 24:00,0.000,
    Through: 9/6,
    For: AllDays,
    Until: 24:00,0.000,
    Through: 9/7,
    For: AllDays,
    Until: 10:37,0.000,
    Until: 10:39,1.000,
    Until: 11:24,0.048,
    Until: 11:29,1.000,
    Until: 21:13,0.000,
    Until: 21:15,1.000,
    Until: 22:00,0.048,
    Until: 22:05,1.000,
    Until: 22:46,0.000,
    Until: 22:48,1.000,
    Until: 23:33,0.048,
    Until: 23:38,1.000,
    Until: 24:00,0.000,
    Through: 9/8,
    For: AllDays,
    Until: 06:22,0.000,
    Until: 06:24,1.000,
    Until: 07:09,0.048,
    Until: 07:14,1.000,
    Until: 11:48,0.000,
    Until: 11:50,1.000,
    Until: 12:35,0.048,
    Until: 12:40,1.000,
    Until: 12:41,0.000,
    Until: 12:43,1.000,
    Until: 13:28,0.048,
    Until: 13:33,1.000,
    Until: 21:23,0.000,
    Until: 21:25,1.000,
    Until: 22:10,0.048,
    Until: 22:15,1.000,
    Until: 22:16,0.000,
    Until: 22:18,1.000,
    Until: 23:03,0.048,
    Until: 23:08,1.000,
    Until: 24:00,0.000,
    Through: 9/9,
    For: AllDays,
    Until: 07:07,0.000,
    Until: 07:09,1.000,
    Until: 07:54,0.048,
    Until: 07:59,1.000,
    Until: 12:11,0.000,
    Until: 12:13,1.000,
    Until: 12:58,0.048,
    Until: 13:03,1.000,
    Until: 18:42,0.000,
    Until: 18:44,1.000,
    Until: 19:29,0.048,
    Until: 19:34,1.000,
    Until: 20:33,0.000,
    Until: 20:35,1.000,
    Until: 21:20,0.048,
    Until: 21:25,1.000,
    Until: 24:00,0.000,
    Through: 9/10,
    For: AllDays,
    Until: 12:05,0.000,
    Until: 12:07,1.000,
    Until: 12:52,0.048,
    Until: 12:57,1.000,
    Until: 13:12,0.000,
    Until: 13:14,1.000,
    Until: 13:59,0.048,
    Until: 14:04,1.000,
    Until: 16:39,0.000,
    Until: 16:41,1.000,
    Until: 17:26,0.048,
    Until: 17:31,1.000,
    Until: 20:22,0.000,
    Until: 20:24,1.000,
    Until: 21:09,0.048,
    Until: 21:14,1.000,
    Until: 21:46,0.000,
    Until: 21:48,1.000,
    Until: 22:33,0.048,
    Until: 22:38,1.000,
    Until: 22:50,0.000,
    Until: 22:52,1.000,
    Until: 23:37,0.048,
    Until: 23:42,1.000,
    Until: 24:00,0.000,
    Through: 9/11,
    For: AllDays,
    Until: 11:42,0.000,
    Until: 11:44,1.000,
    Until: 12:29,0.048,
    Until: 12:34,1.000,
    Until: 15:23,0.000,
    Until: 15:25,1.000,
    Until: 16:10,0.048,
    Until: 16:15,1.000,
    Until: 16:34,0.000,
    Until: 16:36,1.000,
    Until: 17:21,0.048,
    Until: 17:26,1.000,
    Until: 21:44,0.000,
    Until: 21:46,1.000,
    Until: 22:31,0.048,
    Until: 22:36,1.000,
    Until: 23:33,0.000,
    Until: 23:35,1.000,
    Until: 24:00,0.048,
    Through: 9/12,
    For: AllDays,
    Until: 00:20,0.048,
    Until: 00:25,1.000,
    Until: 24:00,0.000,
    Through: 9/13,
    For: AllDays,
    Until: 24:00,0.000,
    Through: 9/14,
    For: AllDays,
    Until: 10:46,0.000,
    Until: 10:48,1.000,
    Until: 11:33,0.048,
    Until: 11:38,1.000,
    Until: 11:44,0.000,
    Until: 11:46,1.000,
    Until: 12:31,0.048,
    Until: 12:36,1.000,
    Until: 13:13,0.000,
    Until: 13:15,1.000,
    Until: 14:00,0.048,
    Until: 14:05,1.000,
    Until: 15:16,0.000,
    Until: 15:18,1.000,
    Until: 16:03,0.048,
    Until: 16:08,1.000,
    Until: 16:27,0.000,
    Until: 16:29,1.000,
    Until: 17:14,0.048,
    Until: 17:19,1.000,
    Until: 19:52,0.000,
    Until: 19:54,1.000,
    Until: 20:39,0.048,
    Until: 20:44,1.000,
    Until: 20:46,0.000,
    Until: 20:48,1.000,
    Until: 21:33,0.048,
    Until: 21:38,1.000,
    Until: 21:41,0.000,
    Until: 21:43,1.000,
    Until: 22:28,0.048,
    Until: 22:33,1.000,
    Until: 23:13,0.000,
    Until: 23:15,1.000,
    Until: 24:00,0.048,
    Through: 9/15,
    For: AllDays,
    Until: 00:00,0.048,
    Until: 00:05,1.000,
    Until: 10:41,0.000,
    Until: 10:43,1.000,
    Until: 11:28,0.048,
    Until: 11:33,1.000,
    Until: 12:18,0.000,
    Until: 12:20,1.000,
    Until: 13:05,0.048,
    Until: 13:10,1.000,
    Until: 19:41,0.000,
    Until: 19:43,1.000,
    Until: 20:28,0.048,
    Until: 20:33,1.000,
    Until: 21:02,0.000,
    Until: 21:04,1.000,
    Until: 21:49,0.048,
    Until: 21:54,1.000,
    Until: 21:55,0.000,
    Until: 21:57,1.000,
    Until: 22:42,0.048,
    Until: 22:47,1.000,
    Until: 24:00,0.000,
    Through: 9/16,
    For: AllDays,
    Until: 07:44,0.000,
    Until: 07:46,1.000,
    Until: 08:31,0.048,
    Until: 08:36,1.000,
    Until: 11:02,0.000,
    Until: 11:04,1.000,
    Until: 11:49,0.048,
    Until: 11:54,1.000,
    Until: 13:42,0.000,
    Until: 13:44,1.000,
    Until: 14:29,0.048,
    Until: 14:34,1.000,
    Until: 15:11,0.000,
    Until: 15:13,1.000,
    Until: 15:58,0.048,
    Until: 16:03,1.000,
    Until: 20:16,0.000,
    Until: 20:18,1.000,
    Until: 21:03,0.048,
    Until: 21:08,1.000,
    Until: 21:09,0.000,
    Until: 21:11,1.000,
    Until: 21:56,0.048,
    Until: 22:01,1.000,
    Until: 22:54,0.000,
    Until: 22:56,1.000,
    Until: 23:41,0.048,
    Until: 23:46,1.000,
    Until: 24:00,0.000,
    Through: 9/17,
    For: AllDays,
    Until: 12:26,0.000,
    Until: 12:28,1.000,
    Until: 13:13,0.048,
    Until: 13:18,1.000,
    Until: 22:23,0.000,
    Until: 22:25,1.000,
    Until: 23:10,0.048,
    Until: 23:15,1.000,
    Until: 24:00,0.000,
    Through: 9/18,
    For: AllDays,
    Until: 10:26,0.000,
    Until: 10:28,1.000,
    Until: 11:13,0.048,
    Until: 11:18,1.000,
    Until: 12:54,0.000,
    Until: 12:56,1.000,
    Until: 13:41,0.048,
    Until: 13:46,1.000,
    Until: 20:38,0.000,
    Until: 20:40,1.000,
    Until: 21:25,0.048,
    Until: 21:30,1.000,
    Until: 21:53,0.000,
    Until: 21:55,1.000,
    Until: 22:40,0.048,
    Until: 22:45,1.000,
    Until: 22:57,0.000,
    Until: 22:59,1.000,
    Until: 23:44,0.048,
    Until: 23:49,1.000,
    Until: 24:00,0.000,
    Through: 9/19,
    For: AllDays,
    Until: 24:00,0.000,
    Through: 9/20,
    For: AllDays,
    Until: 24:00,0.000,
    Through: 9/21,
    For: AllDays,
    Until: 07:48,0.000,
    Until: 07:50,1.000,
    Until: 08:35,0.048,
    Until: 08:40,1.000,
    Until: 11:27,0.000,
    Until: 11:29,1.000,
    Until: 12:14,0.048,
    Until: 12:19,1.000,
    Until: 13:03,0.000,
    Until: 13:05,1.000,
    Until: 13:50,0.048,
    Until: 13:55,1.000,
    Until: 15:55,0.000,
    Until: 15:57,1.000,
    Until: 16:42,0.048,
    Until: 16:47,1.000,
    Until: 19:50,0.000,
    Until: 19:52,1.000,
    Until: 20:37,0.048,
    Until: 20:42,1.000,
    Until: 21:17,0.000,
    Until: 21:19,1.000,
    Until: 22:04,0.048,
    Until: 22:09,1.000,
    Until: 22:30,0.000,
    Until: 22:32,1.000,
    Until: 23:17,0.048,
    Until: 23:22,1.000,
    Until: 24:00,0.000,
    Through: 9/22,
    For: AllDays,
    Until: 10:19,0.000,
    Until: 10:21,1.000,
    Until: 11:06,0.048,
    Until: 11:11,1.000,
    Until: 11:40,0.000,
    Until: 11:42,1.000,
    Until: 12:27,0.048,
    Until: 12:32,1.000,
    Until: 12:49,0.000,
    Until: 12:51,1.000,
    Until: 13:36,0.048,
    Until: 13:41,1.000,
    Until: 16:20,0.000,
    Until: 16:22,1.000,
    Until: 17:07,0.048,
    Until: 17:12,1.000,
    Until: 18:27,0.000,
    Until: 18:29,1.000,
    Until: 19:14,0.048,
    Until: 19:19,1.000,
    Until: 20:22,0.000,
    Until: 20:24,1.000,
    Until: 21:09,0.048,
    Until: 21:14,1.000,
    Until: 21:48,0.000,
    Until: 21:50,1.000,
    Until: 22:35,0.048,
    Until: 22:40,1.000,
    Until: 24:00,0.000,
    Through: 9/23,
    For: AllDays,
    Until: 08:51,0.000,
    Until: 08:53,1.000,
    Until: 09:38,0.048,
    Until: 09:43,1.000,
    Until: 14:09,0.000,
    Until: 14:11,1.000,
    Until: 14:56,0.048,
    Until: 15:01,1.000,
    Until: 16:04,0.000,
    Until: 16:06,1.000,
    Until: 16:51,0.048,
    Until: 16:56,1.000,
    Until: 21:33,0.000,
    Until: 21:35,1.000,
    Until: 22:20,0.048,
    Until: 22:25,1.000,
    Until: 22:26,0.000,
    Until: 22:28,1.000,
    Until: 23:13,0.048,
    Until: 23:18,1.000,
    Until: 23:20,0.000,
    Until: 23:22,1.000,
    Until: 24:00,0.048,
    Through: 9/24,
    For: AllDays,
    Until: 00:07,0.048,
    Until: 00:12,1.000,
    Until: 06:52,0.000,
    Until: 06:54,1.000,
    Until: 07:39,0.048,
    Until: 07:44,1.000,
    Until: 11:57,0.000,
    Until: 11:59,1.000,
    Until: 12:44,0.048,
    Until: 12:49,1.000,
    Until: 12:56,0.000,
    Until: 12:58,1.000,
    Until: 13:43,0.048,
    Until: 13:48,1.000,
    Until: 20:10,0.000,
    Until: 20:12,1.000,
    Until: 20:57,0.048,
    Until: 21:02,1.000,
    Until: 22:47,0.000,
    Until: 22:49,1.000,
    Until: 23:34,0.048,
    Until: 23:39,1.000,
    Until: 24:00,0.000,
    Through: 9/25,
    For: AllDays,
    Until: 07:30,0.000,
    Until: 07:32,1.000,
    Until: 08:17,0.048,
    Until: 08:22,1.000,
    Until: 12:09,0.000,
    Until: 12:11,1.000,
    Until: 12:56,0.048,
    Until: 13:01,1.000,
    Until: 17:50,0.000,
    Until: 17:52,1.000,
    Until: 18:37,0.048,
    Until: 18:42,1.000,
    Until: 20:11,0.000,
    Until: 20:13,1.000,
    Until: 20:58,0.048,
    Until: 21:03,1.000,
    Until: 21:27,0.000,
    Until: 21:29,1.000,
    Until: 22:14,0.048,
    Until: 22:19,1.000,
    Until: 22:53,0.000,
    Until: 22:55,1.000,
    Until: 23:40,0.048,
    Until: 23:45,1.000,
    Until: 24:00,0.000,
    Through: 9/26,
    For: AllDays,
    Until: 24:00,0.000,
    Through: 9/27,
    For: AllDays,
    Until: 24:00,0.000,
    Through: 9/28,
    For: AllDays,
    Until: 12:17,0.000,
    Until: 12:19,1.000,
    Until: 13:04,0.048,
    Until: 13:09,1.000,
    Until: 16:08,0.000,
    Until: 16:10,1.000,
    Until: 16:55,0.048,
    Until: 17:00,1.000,
    Until: 20:50,0.000,
    Until: 20:52,1.000,
    Until: 21:37,0.048,
    Until: 21:42,1.000,
    Until: 23:00,0.000,
    Until: 23:02,1.000,
    Until: 23:47,0.048,
    Until: 23:52,1.000,
    Until: 24:00,0.000,
    Through: 9/29,
    For: AllDays,
    Until: 10:20,0.000,
    Until: 10:22,1.000,
    Until: 11:07,0.048,
    Until: 11:12,1.000,
    Until: 12:56,0.000,
    Until: 12:58,1.000,
    Until: 13:43,0.048,
    Until: 13:48,1.000,
    Until: 18:26,0.000,
    Until: 18:28,1.000,
    Until: 19:13,0.048,
    Until: 19:18,1.000,
    Until: 19:51,0.000,
    Until: 19:53,1.000,
    Until: 20:38,0.048,
    Until: 20:43,1.000,
    Until: 20:44,0.000,
    Until: 20:46,1.000,
    Until: 21:31,0.048,
    Until: 21:36,1.000,
    Until: 21:44,0.000,
    Until: 21:46,1.000,
    Until: 22:31,0.048,
    Until: 22:36,1.000,
    Until: 24:00,0.000,
    Through: 9/30,
    For: AllDays,
    Until: 05:53,0.000,
    Until: 05:55,1.000,
    Until: 06:40,0.048,
    Until: 06:45,1.000,
    Until: 13:06,0.000,
    Until: 13:08,1.000,
    Until: 13:53,0.048,
    Until: 13:58,1.000,
    Until: 16:58,0.000,
    Until: 17:00,1.000,
    Until: 17:45,0.048,
    Until: 17:50,1.000,
    Until: 21:46,0.000,
    Until: 21:48,1.000,
    Until: 22:33,0.048,
    Until: 22:38,1.000,
    Until: 22:50,0.000,
    Until: 22:52,1.000,
    Until: 23:37,0.048,
    Until: 23:42,1.000,
    Until: 24:00,0.000,
    Through: 10/1,
    For: AllDays,
    Until: 13:42,0.000,
    Until: 13:44,1.000,
    Until: 14:29,0.048,
    Until: 14:34,1.000,
    Until: 17:21,0.000,
    Until: 17:23,1.000,
    Until: 18:08,0.048,
    Until: 18:13,1.000,
    Until: 21:49,0.000,
    Until: 21:51,1.000,
    Until: 22:36,0.048,
    Until: 22:41,1.000,
    Until: 22:42,0.000,
    Until: 22:44,1.000,
    Until: 23:29,0.048,
    Until: 23:34,1.000,
    Until: 24:00,0.000,
    Through: 10/2,
    For: AllDays,
    Until: 08:06,0.000,
    Until: 08:08,1.000,
    Until: 08:53,0.048,
    Until: 08:58,1.000,
    Until: 12:41,0.000,
    Until: 12:43,1.000,
    Until: 13:28,0.048,
    Until: 13:33,1.000,
    Until: 16:09,0.000,
    Until: 16:11,1.000,
    Until: 16:56,0.048,
    Until: 17:01,1.000,
    Until: 20:24,0.000,
    Until: 20:26,1.000,
    Until: 21:11,0.048,
    Until: 21:16,1.000,
    Until: 21:29,0.000,
    Until: 21:31,1.000,
    Until: 22:16,0.048,
    Until: 22:21,1.000,
    Until: 22:49,0.000,
    Until: 22:51,1.000,
    Until: 23:36,0.048,
    Until: 23:41,1.000,
    Until: 24:00,0.000,
    Through: 10/3,
    For: AllDays,
    Until: 24:00,0.000,
    Through: 10/4,
    For: AllDays,
    Until: 24:00,0.000,
    Through: 10/5,
    For: AllDays,
    Until: 10:51,0.000,
    Until: 10:53,1.000,
    Until: 11:38,0.048,
    Until: 11:43,1.000,
    Until: 13:01,0.000,
    Until: 13:03,1.000,
    Until: 13:48,0.048,
    Until: 13:53,1.000,
    Until: 18:33,0.000,
    Until: 18:35,1.000,
    Until: 19:20,0.048,
    Until: 19:25,1.000,
    Until: 20:44,0.000,
    Until: 20:46,1.000,
    Until: 21:31,0.048,
    Until: 21:36,1.000,
    Until: 22:01,0.000,
    Until: 22:03,1.000,
    Until: 22:48,0.048,
    Until: 22:53,1.000,
    Until: 24:00,0.000,
    Through: 10/6,
    For: AllDays,
    Until: 12:51,0.000,
    Until: 12:53,1.000,
    Until: 13:38,0.048,
    Until: 13:43,1.000,
    Until: 16:31,0.000,
    Until: 16:33,1.000,
    Until: 17:18,0.048,
    Until: 17:23,1.000,
    Until: 20:43,0.000,
    Until: 20:45,1.000,
    Until: 21:30,0.048,
    Until: 21:35,1.000,
    Until: 24:00,0.000,
    Through: 10/7,
    For: AllDays,
    Until: 12:15,0.000,
    Until: 12:17,1.000,
    Until: 13:02,0.048,
    Until: 13:07,1.000,
    Until: 13:10,0.000,
    Until: 13:12,1.000,
    Until: 13:57,0.048,
    Until: 14:02,1.000,
    Until: 17:19,0.000,
    Until: 17:21,1.000,
    Until: 18:06,0.048,
    Until: 18:11,1.000,
    Until: 21:19,0.000,
    Until: 21:21,1.000,
    Until: 22:06,0.048,
    Until: 22:11,1.000,
    Until: 22:35,0.000,
    Until: 22:37,1.000,
    Until: 23:22,0.048,
    Until: 23:27,1.000,
    Until: 24:00,0.000,
    Through: 10/8,
    For: AllDays,
    Until: 07:01,0.000,
    Until: 07:03,1.000,
    Until: 07:48,0.048,
    Until: 07:53,1.000,
    Until: 12:18,0.000,
    Until: 12:20,1.000,
    Until: 13:05,0.048,
    Until: 13:10,1.000,
    Until: 15:47,0.000,
    Until: 15:49,1.000,
    Until: 16:34,0.048,
    Until: 16:39,1.000,
    Until: 16:49,0.000,
    Until: 16:51,1.000,
    Until: 17:36,0.048,
    Until: 17:41,1.000,
    Until: 21:56,0.000,
    Until: 21:58,1.000,
    Until: 22:43,0.048,
    Until: 22:48,1.000,
    Until: 23:30,0.000,
    Until: 23:32,1.000,
    Until: 24:00,0.048,
    Through: 10/9,
    For: AllDays,
    Until: 00:17,0.048,
    Until: 00:22,1.000,
    Until: 10:26,0.000,
    Until: 10:28,1.000,
    Until: 11:13,0.048,
    Until: 11:18,1.000,
    Until: 12:35,0.000,
    Until: 12:37,1.000,
    Until: 13:22,0.048,
    Until: 13:27,1.000,
    Until: 16:48,0.000,
    Until: 16:50,1.000,
    Until: 17:35,0.048,
    Until: 17:40,1.000,
    Until: 20:38,0.000,
    Until: 20:40,1.000,
    Until: 21:25,0.048,
    Until: 21:30,1.000,
    Until: 21:31,0.000,
    Until: 21:33,1.000,
    Until: 22:18,0.048,
    Until: 22:23,1.000,
    Until: 23:46,0.000,
    Until: 23:48,1.000,
    Until: 24:00,0.048,
    Through: 10/10,
    For: AllDays,
    Until: 00:33,0.048,
    Until: 00:38,1.000,
    Until: 24:00,0.000,
    Through: 10/11,
    For: AllDays,
    Until: 24:00,0.000,
    Through: 10/12,
    For: AllDays,
    Until: 07:49,0.000,
    Until: 07:51,1.000,
    Until: 08:36,0.048,
    Until: 08:41,1.000,
    Until: 12:05,0.000,
    Until: 12:07,1.000,
    Until: 12:52,0.048,
    Until: 12:57,1.000,
    Until: 12:58,0.000,
    Until: 13:00,1.000,
    Until: 13:45,0.048,
    Until: 13:50,1.000,
    Until: 17:14,0.000,
    Until: 17:16,1.000,
    Until: 18:01,0.048,
    Until: 18:06,1.000,
    Until: 20:43,0.000,
    Until: 20:45,1.000,
    Until: 21:30,0.048,
    Until: 21:35,1.000,
    Until: 21:36,0.000,
    Until: 21:38,1.000,
    Until: 22:23,0.048,
    Until: 22:28,1.000,
    Until: 24:00,0.000,
    Through: 10/13,
    For: AllDays,
    Until: 07:02,0.000,
    Until: 07:04,1.000,
    Until: 07:49,0.048,
    Until: 07:54,1.000,
    Until: 11:47,0.000,
    Until: 11:49,1.000,
    Until: 12:34,0.048,
    Until: 12:39,1.000,
    Until: 13:28,0.000,
    Until: 13:30,1.000,
    Until: 14:15,0.048,
    Until: 14:20,1.000,
    Until: 18:13,0.000,
    Until: 18:15,1.000,
    Until: 19:00,0.048,
    Until: 19:05,1.000,
    Until: 19:55,0.000,
    Until: 19:57,1.000,
    Until: 20:42,0.048,
    Until: 20:47,1.000,
    Until: 21:09,0.000,
    Until: 21:11,1.000,
    Until: 21:56,0.048,
    Until: 22:01,1.000,
    Until: 24:00,0.000,
    Through: 10/14,
    For: AllDays,
    Until: 07:16,0.000,
    Until: 07:18,1.000,
    Until: 08:03,0.048,
    Until: 08:08,1.000,
    Until: 08:58,0.000,
    Until: 09:00,1.000,
    Until: 09:45,0.048,
    Until: 09:50,1.000,
    Until: 11:39,0.000,
    Until: 11:41,1.000,
    Until: 12:26,0.048,
    Until: 12:31,1.000,
    Until: 20:45,0.000,
    Until: 20:47,1.000,
    Until: 21:32,0.048,
    Until: 21:37,1.000,
    Until: 22:05,0.000,
    Until: 22:07,1.000,
    Until: 22:52,0.048,
    Until: 22:57,1.000,
    Until: 23:23,0.000,
    Until: 23:25,1.000,
    Until: 24:00,0.048,
    Through: 10/15,
    For: AllDays,
    Until: 00:10,0.048,
    Until: 00:15,1.000,
    Until: 05:51,0.000,
    Until: 05:53,1.000,
    Until: 06:38,0.048,
    Until: 06:43,1.000,
    Until: 10:27,0.000,
    Until: 10:29,1.000,
    Until: 11:14,0.048,
    Until: 11:19,1.000,
    Until: 11:42,0.000,
    Until: 11:44,1.000,
    Until: 12:29,0.048,
    Until: 12:34,1.000,
    Until: 12:35,0.000,
    Until: 12:37,1.000,
    Until: 13:22,0.048,
    Until: 13:27,1.000,
    Until: 15:20,0.000,
    Until: 15:22,1.000,
    Until: 16:07,0.048,
    Until: 16:12,1.000,
    Until: 21:07,0.000,
    Until: 21:09,1.000,
    Until: 21:54,0.048,
    Until: 21:59,1.000,
    Until: 22:45,0.000,
    Until: 22:47,1.000,
    Until: 23:32,0.048,
    Until: 23:37,1.000,
    Until: 24:00,0.000,
    Through: 10/16,
    For: AllDays,
    Until: 11:29,0.000,
    Until: 11:31,1.000,
    Until: 12:16,0.048,
    Until: 12:21,1.000,
    Until: 20:30,0.000,
    Until: 20:32,1.000,
    Until: 21:17,0.048,
    Until: 21:22,1.000,
    Until: 21:50,0.000,
    Until: 21:52,1.000,
    Until: 22:37,0.048,
    Until: 22:42,1.000,
    Until: 22:48,0.000,
    Until: 22:50,1.000,
    Until: 23:35,0.048,
    Until: 23:40,1.000,
    Until: 24:00,0.000,
    Through: 10/17,
    For: AllDays,
    Until: 24:00,0.000,
    Through: 10/18,
    For: AllDays,
    Until: 24:00,0.000,
    Through: 10/19,
    For: AllDays,
    Until: 07:29,0.000,
    Until: 07:31,1.000,
    Until: 08:16,0.048,
    Until: 08:21,1.000,
    Until: 11:05,0.000,
    Until: 11:07,1.000,
    Until: 11:52,0.048,
    Until: 11:57,1.000,
    Until: 12:45,0.000,
    Until: 12:47,1.000,
    Until: 13:32,0.048,
    Until: 13:37,1.000,
    Until: 21:09,0.000,
    Until: 21:11,1.000,
    Until: 21:56,0.048,
    Until: 22:01,1.000,
    Until: 22:32,0.000,
    Until: 22:34,1.000,
    Until: 23:19,0.048,
    Until: 23:24,1.000,
    Until: 23:25,0.000,
    Until: 23:27,1.000,
    Until: 24:00,0.048,
    Through: 10/20,
    For: AllDays,
    Until: 00:12,0.048,
    Until: 00:17,1.000,
    Until: 11:50,0.000,
    Until: 11:52,1.000,
    Until: 12:37,0.048,
    Until: 12:42,1.000,
    Until: 19:58,0.000,
    Until: 20:00,1.000,
    Until: 20:45,0.048,
    Until: 20:50,1.000,
    Until: 21:30,0.000,
    Until: 21:32,1.000,
    Until: 22:17,0.048,
    Until: 22:22,1.000,
    Until: 24:00,0.000,
    Through: 10/21,
    For: AllDays,
    Until: 11:43,0.000,
    Until: 11:45,1.000,
    Until: 12:30,0.048,
    Until: 12:35,1.000,
    Until: 12:50,0.000,
    Until: 12:52,1.000,
    Until: 13:37,0.048,
    Until: 13:42,1.000,
    Until: 15:52,0.000,
    Until: 15:54,1.000,
    Until: 16:39,0.048,
    Until: 16:44,1.000,
    Until: 20:13,0.000,
    Until: 20:15,1.000,
    Until: 21:00,0.048,
    Until: 21:05,1.000,
    Until: 21:24,0.000,
    Until: 21:26,1.000,
    Until: 22:11,0.048,
    Until: 22:16,1.000,
    Until: 22:51,0.000,
    Until: 22:53,1.000,
    Until: 23:38,0.048,
    Until: 23:43,1.000,
    Until: 24:00,0.000,
    Through: 10/22,
    For: AllDays,
    Until: 08:11,0.000,
    Until: 08:13,1.000,
    Until: 08:58,0.048,
    Until: 09:03,1.000,
    Until: 10:43,0.000,
    Until: 10:45,1.000,
    Until: 11:30,0.048,
    Until: 11:35,1.000,
    Until: 16:28,0.000,
    Until: 16:30,1.000,
    Until: 17:15,0.048,
    Until: 17:20,1.000,
    Until: 20:20,0.000,
    Until: 20:22,1.000,
    Until: 21:07,0.048,
    Until: 21:12,1.000,
    Until: 21:51,0.000,
    Until: 21:53,1.000,
    Until: 22:38,0.048,
    Until: 22:43,1.000,
    Until: 22:54,0.000,
    Until: 22:56,1.000,
    Until: 23:41,0.048,
    Until: 23:46,1.000,
    Until: 24:00,0.000,
    Through: 10/23,
    For: AllDays,
    Until: 05:36,0.000,
    Until: 05:38,1.000,
    Until: 06:23,0.048,
    Until: 06:28,1.000,
    Until: 12:13,0.000,
    Until: 12:15,1.000,
    Until: 13:00,0.048,
    Until: 13:05,1.000,
    Until: 21:07,0.000,
    Until: 21:09,1.000,
    Until: 21:54,0.048,
    Until: 21:59,1.000,
    Until: 22:00,0.000,
    Until: 22:02,1.000,
    Until: 22:47,0.048,
    Until: 22:52,1.000,
    Until: 23:37,0.000,
    Until: 23:39,1.000,
    Until: 24:00,0.048,
    Through: 10/24,
    For: AllDays,
    Until: 00:24,0.048,
    Until: 00:29,1.000,
    Until: 24:00,0.000,
    Through: 10/25,
    For: AllDays,
    Until: 24:00,0.000,
    Through: 10/26,
    For: AllDays,
    Until: 06:35,0.000,
    Until: 06:37,1.000,
    Until: 07:22,0.048,
    Until: 07:27,1.000,
    Until: 10:50,0.000,
    Until: 10:52,1.000,
    Until: 11:37,0.048,
    Until: 11:42,1.000,
    Until: 11:45,0.000,
    Until: 11:47,1.000,
    Until: 12:32,0.048,
    Until: 12:37,1.000,
    Until: 15:46,0.000,
    Until: 15:48,1.000,
    Until: 16:33,0.048,
    Until: 16:38,1.000,
    Until: 20:15,0.000,
    Until: 20:17,1.000,
    Until: 21:02,0.048,
    Until: 21:07,1.000,
    Until: 21:34,0.000,
    Until: 21:36,1.000,
    Until: 22:21,0.048,
    Until: 22:26,1.000,
    Until: 22:27,0.000,
    Until: 22:29,1.000,
    Until: 23:14,0.048,
    Until: 23:19,1.000,
    Until: 24:00,0.000,
    Through: 10/27,
    For: AllDays,
    Until: 08:51,0.000,
    Until: 08:53,1.000,
    Until: 09:38,0.048,
    Until: 09:43,1.000,
    Until: 12:57,0.000,
    Until: 12:59,1.000,
    Until: 13:44,0.048,
    Until: 13:49,1.000,
    Until: 15:54,0.000,
    Until: 15:56,1.000,
    Until: 16:41,0.048,
    Until: 16:46,1.000,
    Until: 20:19,0.000,
    Until: 20:21,1.000,
    Until: 21:06,0.048,
    Until: 21:11,1.000,
    Until: 21:16,0.000,
    Until: 21:18,1.000,
    Until: 22:03,0.048,
    Until: 22:08,1.000,
    Until: 24:00,0.000,
    Through: 10/28,
    For: AllDays,
    Until: 09:15,0.000,
    Until: 09:17,1.000,
    Until: 10:02,0.048,
    Until: 10:07,1.000,
    Until: 11:53,0.000,
    Until: 11:55,1.000,
    Until: 12:40,0.048,
    Until: 12:45,1.000,
    Until: 17:14,0.000,
    Until: 17:16,1.000,
    Until: 18:01,0.048,
    Until: 18:06,1.000,
    Until: 20:34,0.000,
    Until: 20:36,1.000,
    Until: 21:21,0.048,
    Until: 21:26,1.000,
    Until: 21:44,0.000,
    Until: 21:46,1.000,
    Until: 22:31,0.048,
    Until: 22:36,1.000,
    Until: 22:37,0.000,
    Until: 22:39,1.000,
    Until: 23:24,0.048,
    Until: 23:29,1.000,
    Until: 24:00,0.000,
    Through: 10/29,
    For: AllDays,
    Until: 08:16,0.000,
    Until: 08:18,1.000,
    Until: 09:03,0.048,
    Until: 09:08,1.000,
    Until: 11:09,0.000,
    Until: 11:11,1.000,
    Until: 11:56,0.048,
    Until: 12:01,1.000,
    Until: 13:27,0.000,
    Until: 13:29,1.000,
    Until: 14:14,0.048,
    Until: 14:19,1.000,
    Until: 15:40,0.000,
    Until: 15:42,1.000,
    Until: 16:27,0.048,
    Until: 16:32,1.000,
    Until: 21:24,0.000,
    Until: 21:26,1.000,
    Until: 22:11,0.048,
    Until: 22:16,1.000,
    Until: 22:17,0.000,
    Until: 22:19,1.000,
    Until: 23:04,0.048,
    Until: 23:09,1.000,
    Until: 23:19,0.000,
    Until: 23:21,1.000,
    Until: 24:00,0.048,
    Through: 10/30,
    For: AllDays,
    Until: 00:06,0.048,
    Until: 00:11,1.000,
    Until: 12:55,0.000,
    Until: 12:57,1.000,
    Until: 13:42,0.048,
    Until: 13:47,1.000,
    Until: 20:09,0.000,
    Until: 20:11,1.000,
    Until: 20:56,0.048,
    Until: 21:01,1.000,
    Until: 21:03,0.000,
    Until: 21:05,1.000,
    Until: 21:50,0.048,
    Until: 21:55,1.000,
    Until: 22:26,0.000,
    Until: 22:28,1.000,
    Until: 23:13,0.048,
    Until: 23:18,1.000,
    Until: 23:22,0.000,
    Until: 23:24,1.000,
    Until: 24:00,0.048,
    Through: 10/31,
    For: AllDays,
    Until: 00:09,0.048,
    Until: 00:14,1.000,
    Until: 24:00,0.000,
    Through: 11/1,
    For: AllDays,
    Until: 24:00,0.000,
    Through: 11/2,
    For: AllDays,
    Until: 17:09,0.000,
    Until: 17:11,1.000,
    Until: 17:56,0.048,
    Until: 18:01,1.000,
    Until: 21:45,0.000,
    Until: 21:47,1.000,
    Until: 22:32,0.048,
    Until: 22:37,1.000,
    Until: 22:42,0.000,
    Until: 22:44,1.000,
    Until: 23:29,0.048,
    Until: 23:34,1.000,
    Until: 24:00,0.000,
    Through: 11/3,
    For: AllDays,
    Until: 07:52,0.000,
    Until: 07:54,1.000,
    Until: 08:39,0.048,
    Until: 08:44,1.000,
    Until: 10:21,0.000,
    Until: 10:23,1.000,
    Until: 11:08,0.048,
    Until: 11:13,1.000,
    Until: 11:15,0.000,
    Until: 11:17,1.000,
    Until: 12:02,0.048,
    Until: 12:07,1.000,
    Until: 18:28,0.000,
    Until: 18:30,1.000,
    Until: 19:15,0.048,
    Until: 19:20,1.000,
    Until: 20:04,0.000,
    Until: 20:06,1.000,
    Until: 20:51,0.048,
    Until: 20:56,1.000,
    Until: 21:58,0.000,
    Until: 22:00,1.000,
    Until: 22:45,0.048,
    Until: 22:50,1.000,
    Until: 24:00,0.000,
    Through: 11/4,
    For: AllDays,
    Until: 12:28,0.000,
    Until: 12:30,1.000,
    Until: 13:15,0.048,
    Until: 13:20,1.000,
    Until: 17:52,0.000,
    Until: 17:54,1.000,
    Until: 18:39,0.048,
    Until: 18:44,1.000,
    Until: 21:58,0.000,
    Until: 22:00,1.000,
    Until: 22:45,0.048,
    Until: 22:50,1.000,
    Until: 24:00,0.000,
    Through: 11/5,
    For: AllDays,
    Until: 10:58,0.000,
    Until: 11:00,1.000,
    Until: 11:45,0.048,
    Until: 11:50,1.000,
    Until: 14:42,0.000,
    Until: 14:44,1.000,
    Until: 15:29,0.048,
    Until: 15:34,1.000,
    Until: 20:08,0.000,
    Until: 20:10,1.000,
    Until: 20:55,0.048,
    Until: 21:00,1.000,
    Until: 22:07,0.000,
    Until: 22:09,1.000,
    Until: 22:54,0.048,
    Until: 22:59,1.000,
    Until: 24:00,0.000,
    Through: 11/6,
    For: AllDays,
    Until: 14:10,0.000,
    Until: 14:12,1.000,
    Until: 14:57,0.048,
    Until: 15:02,1.000,
    Until: 17:39,0.000,
    Until: 17:41,1.000,
    Until: 18:26,0.048,
    Until: 18:31,1.000,
    Until: 24:00,0.000,
    Through: 11/7,
    For: AllDays,
    Until: 24:00,0.000,
    Through: 11/8,
    For: AllDays,
    Until: 24:00,0.000,
    Through: 11/9,
    For: AllDays,
    Until: 18:51,0.000,
    Until: 18:53,1.000,
    Until: 19:38,0.048,
    Until: 19:43,1.000,
    Until: 20:18,0.000,
    Until: 20:20,1.000,
    Until: 21:05,0.048,
    Until: 21:10,1.000,
    Until: 21:27,0.000,
    Until: 21:29,1.000,
    Until: 22:14,0.048,
    Until: 22:19,1.000,
    Until: 24:00,0.000,
    Through: 11/10,
    For: AllDays,
    Until: 10:44,0.000,
    Until: 10:46,1.000,
    Until: 11:31,0.048,
    Until: 11:36,1.000,
    Until: 14:31,0.000,
    Until: 14:33,1.000,
    Until: 15:18,0.048,
    Until: 15:23,1.000,
    Until: 20:40,0.000,
    Until: 20:42,1.000,
    Until: 21:27,0.048,
    Until: 21:32,1.000,
    Until: 22:35,0.000,
    Until: 22:37,1.000,
    Until: 23:22,0.048,
    Until: 23:27,1.000,
    Until: 24:00,0.000,
    Through: 11/11,
    For: AllDays,
    Until: 12:38,0.000,
    Until: 12:40,1.000,
    Until: 13:25,0.048,
    Until: 13:30,1.000,
    Until: 21:19,0.000,
    Until: 21:21,1.000,
    Until: 22:06,0.048,
    Until: 22:11,1.000,
    Until: 22:12,0.000,
    Until: 22:14,1.000,
    Until: 22:59,0.048,
    Until: 23:04,1.000,
    Until: 24:00,0.000,
    Through: 11/12,
    For: AllDays,
    Until: 11:46,0.000,
    Until: 11:48,1.000,
    Until: 12:33,0.048,
    Until: 12:38,1.000,
    Until: 13:07,0.000,
    Until: 13:09,1.000,
    Until: 13:54,0.048,
    Until: 13:59,1.000,
    Until: 21:47,0.000,
    Until: 21:49,1.000,
    Until: 22:34,0.048,
    Until: 22:39,1.000,
    Until: 23:17,0.000,
    Until: 23:19,1.000,
    Until: 24:00,0.048,
    Through: 11/13,
    For: AllDays,
    Until: 00:04,0.048,
    Until: 00:09,1.000,
    Until: 06:38,0.000,
    Until: 06:40,1.000,
    Until: 07:25,0.048,
    Until: 07:30,1.000,
    Until: 13:07,0.000,
    Until: 13:09,1.000,
    Until: 13:54,0.048,
    Until: 13:59,1.000,
    Until: 16:52,0.000,
    Until: 16:54,1.000,
    Until: 17:39,0.048,
    Until: 17:44,1.000,
    Until: 18:01,0.000,
    Until: 18:03,1.000,
    Until: 18:48,0.048,
    Until: 18:53,1.000,
    Until: 23:26,0.000,
    Until: 23:28,1.000,
    Until: 24:00,0.048,
    Through: 11/14,
    For: AllDays,
    Until: 00:13,0.048,
    Until: 00:18,1.000,
    Until: 24:00,0.000,
    Through: 11/15,
    For: AllDays,
    Until: 24:00,0.000,
    Through: 11/16,
    For: AllDays,
    Until: 11:08,0.000,
    Until: 11:10,1.000,
    Until: 11:55,0.048,
    Until: 12:00,1.000,
    Until: 12:57,0.000,
    Until: 12:59,1.000,
    Until: 13:44,0.048,
    Until: 13:49,1.000,
    Until: 15:22,0.000,
    Until: 15:24,1.000,
    Until: 16:09,0.048,
    Until: 16:14,1.000,
    Until: 20:20,0.000,
    Until: 20:22,1.000,
    Until: 21:07,0.048,
    Until: 21:12,1.000,
    Until: 23:48,0.000,
    Until: 23:50,1.000,
    Until: 24:00,0.048,
    Through: 11/17,
    For: AllDays,
    Until: 00:35,0.048,
    Until: 00:40,1.000,
    Until: 07:09,0.000,
    Until: 07:11,1.000,
    Until: 07:56,0.048,
    Until: 08:01,1.000,
    Until: 08:27,0.000,
    Until: 08:29,1.000,
    Until: 09:14,0.048,
    Until: 09:19,1.000,
    Until: 12:15,0.000,
    Until: 12:17,1.000,
    Until: 13:02,0.048,
    Until: 13:07,1.000,
    Until: 17:09,0.000,
    Until: 17:11,1.000,
    Until: 17:56,0.048,
    Until: 18:01,1.000,
    Until: 22:33,0.000,
    Until: 22:35,1.000,
    Until: 23:20,0.048,
    Until: 23:25,1.000,
    Until: 23:52,0.000,
    Until: 23:54,1.000,
    Until: 24:00,0.048,
    Through: 11/18,
    For: AllDays,
    Until: 00:39,0.048,
    Until: 00:44,1.000,
    Until: 12:43,0.000,
    Until: 12:45,1.000,
    Until: 13:30,0.048,
    Until: 13:35,1.000,
    Until: 17:46,0.000,
    Until: 17:48,1.000,
    Until: 18:33,0.048,
    Until: 18:38,1.000,
    Until: 21:04,0.000,
    Until: 21:06,1.000,
    Until: 21:51,0.048,
    Until: 21:56,1.000,
    Until: 24:00,0.000,
    Through: 11/19,
    For: AllDays,
    Until: 11:44,0.000,
    Until: 11:46,1.000,
    Until: 12:31,0.048,
    Until: 12:36,1.000,
    Until: 20:56,0.000,
    Until: 20:58,1.000,
    Until: 21:43,0.048,
    Until: 21:48,1.000,
    Until: 21:56,0.000,
    Until: 21:58,1.000,
    Until: 22:43,0.048,
    Until: 22:48,1.000,
    Until: 24:00,0.000,
    Through: 11/20,
    For: AllDays,
    Until: 11:07,0.000,
    Until: 11:09,1.000,
    Until: 11:54,0.048,
    Until: 11:59,1.000,
    Until: 16:01,0.000,
    Until: 16:03,1.000,
    Until: 16:48,0.048,
    Until: 16:53,1.000,
    Until: 21:15,0.000,
    Until: 21:17,1.000,
    Until: 22:02,0.048,
    Until: 22:07,1.000,
    Until: 24:00,0.000,
    Through: 11/21,
    For: AllDays,
    Until: 24:00,0.000,
    Through: 11/22,
    For: AllDays,
    Until: 24:00,0.000,
    Through: 11/23,
    For: AllDays,
    Until: 17:23,0.000,
    Until: 17:25,1.000,
    Until: 18:10,0.048,
    Until: 18:15,1.000,
    Until: 19:56,0.000,
    Until: 19:58,1.000,
    Until: 20:43,0.048,
    Until: 20:48,1.000,
    Until: 22:15,0.000,
    Until: 22:17,1.000,
    Until: 23:02,0.048,
    Until: 23:07,1.000,
    Until: 24:00,0.000,
    Through: 11/24,
    For: AllDays,
    Until: 07:44,0.000,
    Until: 07:46,1.000,
    Until: 08:31,0.048,
    Until: 08:36,1.000,
    Until: 11:16,0.000,
    Until: 11:18,1.000,
    Until: 12:03,0.048,
    Until: 12:08,1.000,
    Until: 14:48,0.000,
    Until: 14:50,1.000,
    Until: 15:35,0.048,
    Until: 15:40,1.000,
    Until: 21:26,0.000,
    Until: 21:28,1.000,
    Until: 22:13,0.048,
    Until: 22:18,1.000,
    Until: 24:00,0.000,
    Through: 11/25,
    For: AllDays,
    Until: 17:06,0.000,
    Until: 17:08,1.000,
    Until: 17:53,0.048,
    Until: 17:58,1.000,
    Until: 19:51,0.000,
    Until: 19:53,1.000,
    Until: 20:38,0.048,
    Until: 20:43,1.000,
    Until: 21:16,0.000,
    Until: 21:18,1.000,
    Until: 22:03,0.048,
    Until: 22:08,1.000,
    Until: 22:57,0.000,
    Until: 22:59,1.000,
    Until: 23:44,0.048,
    Until: 23:49,1.000,
    Until: 24:00,0.000,
    Through: 11/26,
    For: AllDays,
    Until: 12:07,0.000,
    Until: 12:09,1.000,
    Until: 12:54,0.048,
    Until: 12:59,1.000,
    Until: 17:50,0.000,
    Until: 17:52,1.000,
    Until: 18:37,0.048,
    Until: 18:42,1.000,
    Until: 20:48,0.000,
    Until: 20:50,1.000,
    Until: 21:35,0.048,
    Until: 21:40,1.000,
    Until: 22:34,0.000,
    Until: 22:36,1.000,
    Until: 23:21,0.048,
    Until: 23:26,1.000,
    Until: 24:00,0.000,
    Through: 11/27,
    For: AllDays,
    Until: 11:04,0.000,
    Until: 11:06,1.000,
    Until: 11:51,0.048,
    Until: 11:56,1.000,
    Until: 17:01,0.000,
    Until: 17:03,1.000,
    Until: 17:48,0.048,
    Until: 17:53,1.000,
    Until: 18:56,0.000,
    Until: 18:58,1.000,
    Until: 19:43,0.048,
    Until: 19:48,1.000,
    Until: 20:35,0.000,
    Until: 20:37,1.000,
    Until: 21:22,0.048,
    Until: 21:27,1.000,
    Until: 22:11,0.000,
    Until: 22:13,1.000,
    Until: 22:58,0.048,
    Until: 23:03,1.000,
    Until: 24:00,0.000,
    Through: 11/28,
    For: AllDays,
    Until: 24:00,0.000,
    Through: 11/29,
    For: AllDays,
    Until: 24:00,0.000,
    Through: 11/30,
    For: AllDays,
    Until: 06:57,0.000,
    Until: 06:59,1.000,
    Until: 07:44,0.048,
    Until: 07:49,1.000,
    Until: 12:55,0.000,
    Until: 12:57,1.000,
    Until: 13:42,0.048,
    Until: 13:47,1.000,
    Until: 17:00,0.000,
    Until: 17:02,1.000,
    Until: 17:47,0.048,
    Until: 17:52,1.000,
    Until: 17:55,0.000,
    Until: 17:57,1.000,
    Until: 18:42,0.048,
    Until: 18:47,1.000,
    Until: 23:15,0.000,
    Until: 23:17,1.000,
    Until: 24:00,0.048,
    Through: 12/1,
    For: AllDays,
    Until: 00:02,0.048,
    Until: 00:07,1.000,
    Until: 05:51,0.000,
    Until: 05:53,1.000,
    Until: 06:38,0.048,
    Until: 06:43,1.000,
    Until: 07:30,0.000,
    Until: 07:32,1.000,
    Until: 08:17,0.048,
    Until: 08:22,1.000,
    Until: 19:56,0.000,
    Until: 19:58,1.000,
    Until: 20:43,0.048,
    Until: 20:48,1.000,
    Until: 21:00,0.000,
    Until: 21:02,1.000,
    Until: 21:47,0.048,
    Until: 21:52,1.000,
    Until: 24:00,0.000,
    Through: 12/2,
    For: AllDays,
    Until: 09:54,0.000,
    Until: 09:56,1.000,
    Until: 10:41,0.048,
    Until: 10:46,1.000,
    Until: 12:00,0.000,
    Until: 12:02,1.000,
    Until: 12:47,0.048,
    Until: 12:52,1.000,
    Until: 14:02,0.000,
    Until: 14:04,1.000,
    Until: 14:49,0.048,
    Until: 14:54,1.000,
    Until: 19:51,0.000,
    Until: 19:53,1.000,
    Until: 20:38,0.048,
    Until: 20:43,1.000,
    Until: 24:00,0.000,
    Through: 12/3,
    For: AllDays,
    Until: 07:58,0.000,
    Until: 08:00,1.000,
    Until: 08:45,0.048,
    Until: 08:50,1.000,
    Until: 09:47,0.000,
    Until: 09:49,1.000,
    Until: 10:34,0.048,
    Until: 10:39,1.000,
    Until: 12:46,0.000,
    Until: 12:48,1.000,
    Until: 13:33,0.048,
    Until: 13:38,1.000,
    Until: 20:52,0.000,
    Until: 20:54,1.000,
    Until: 21:39,0.048,
    Until: 21:44,1.000,
    Until: 21:45,0.000,
    Until: 21:47,1.000,
    Until: 22:32,0.048,
    Until: 22:37,1.000,
    Until: 24:00,0.000,
    Through: 12/4,
    For: AllDays,
    Until: 07:03,0.000,
    Until: 07:05,1.000,
    Until: 07:50,0.048,
    Until: 07:55,1.000,
    Until: 10:47,0.000,
    Until: 10:49,1.000,
    Until: 11:34,0.048,
    Until: 11:39,1.000,
    Until: 11:44,0.000,
    Until: 11:46,1.000,
    Until: 12:31,0.048,
    Until: 12:36,1.000,
    Until: 13:13,0.000,
    Until: 13:15,1.000,
    Until: 14:00,0.048,
    Until: 14:05,1.000,
    Until: 16:24,0.000,
    Until: 16:26,1.000,
    Until: 17:11,0.048,
    Until: 17:16,1.000,
    Until: 21:17,0.000,
    Until: 21:19,1.000,
    Until: 22:04,0.048,
    Until: 22:09,1.000,
    Until: 22:39,0.000,
    Until: 22:41,1.000,
    Until: 23:26,0.048,
    Until: 23:31,1.000,
    Until: 24:00,0.000,
    Through: 12/5,
    For: AllDays,
    Until: 24:00,0.000,
    Through: 12/6,
    For: AllDays,
    Until: 24:00,0.000,
    Through: 12/7,
    For: AllDays,
    Until: 06:52,0.000,
    Until: 06:54,1.000,
    Until: 07:39,0.048,
    Until: 07:44,1.000,
    Until: 09:53,0.000,
    Until: 09:55,1.000,
    Until: 10:40,0.048,
    Until: 10:45,1.000,
    Until: 11:32,0.000,
    Until: 11:34,1.000,
    Until: 12:19,0.048,
    Until: 12:24,1.000,
    Until: 16:12,0.000,
    Until: 16:14,1.000,
    Until: 16:59,0.048,
    Until: 17:04,1.000,
    Until: 20:39,0.000,
    Until: 20:41,1.000,
    Until: 21:26,0.048,
    Until: 21:31,1.000,
    Until: 21:56,0.000,
    Until: 21:58,1.000,
    Until: 22:43,0.048,
    Until: 22:48,1.000,
    Until: 24:00,0.000,
    Through: 12/8,
    For: AllDays,
    Until: 08:08,0.000,
    Until: 08:10,1.000,
    Until: 08:55,0.048,
    Until: 09:00,1.000,
    Until: 10:02,0.000,
    Until: 10:04,1.000,
    Until: 10:49,0.048,
    Until: 10:54,1.000,
    Until: 11:19,0.000,
    Until: 11:21,1.000,
    Until: 12:06,0.048,
    Until: 12:11,1.000,
    Until: 12:30,0.000,
    Until: 12:32,1.000,
    Until: 13:17,0.048,
    Until: 13:22,1.000,
    Until: 17:49,0.000,
    Until: 17:51,1.000,
    Until: 18:36,0.048,
    Until: 18:41,1.000,
    Until: 20:54,0.000,
    Until: 20:56,1.000,
    Until: 21:41,0.048,
    Until: 21:46,1.000,
    Until: 22:51,0.000,
    Until: 22:53,1.000,
    Until: 23:38,0.048,
    Until: 23:43,1.000,
    Until: 23:47,0.000,
    Until: 23:49,1.000,
    Until: 24:00,0.048,
    Through: 12/9,
    For: AllDays,
    Until: 00:34,0.048,
    Until: 00:39,1.000,
    Until: 07:02,0.000,
    Until: 07:04,1.000,
    Until: 07:49,0.048,
    Until: 07:54,1.000,
    Until: 09:55,0.000,
    Until: 09:57,1.000,
    Until: 10:42,0.048,
    Until: 10:47,1.000,
    Until: 11:39,0.000,
    Until: 11:41,1.000,
    Until: 12:26,0.048,
    Until: 12:31,1.000,
    Until: 20:18,0.000,
    Until: 20:20,1.000,
    Until: 21:05,0.048,
    Until: 21:10,1.000,
    Until: 21:11,0.000,
    Until: 21:13,1.000,
    Until: 21:58,0.048,
    Until: 22:03,1.000,
    Until: 23:11,0.000,
    Until: 23:13,1.000,
    Until: 23:58,0.048,
    Until: 24:00,1.000,
    Through: 12/10,
    For: AllDays,
    Until: 00:03,1.000,
    Until: 05:03,0.000,
    Until: 05:05,1.000,
    Until: 05:50,0.048,
    Until: 05:55,1.000,
    Until: 17:00,0.000,
    Until: 17:02,1.000,
    Until: 17:47,0.048,
    Until: 17:52,1.000,
    Until: 21:25,0.000,
    Until: 21:27,1.000,
    Until: 22:12,0.048,
    Until: 22:17,1.000,
    Until: 22:23,0.000,
    Until: 22:25,1.000,
    Until: 23:10,0.048,
    Until: 23:15,1.000,
    Until: 23:46,0.000,
    Until: 23:48,1.000,
    Until: 24:00,0.048,
    Through: 12/11,
    For: AllDays,
    Until: 00:33,0.048,
    Until: 00:38,1.000,
    Until: 10:44,0.000,
    Until: 10:46,1.000,
    Until: 11:31,0.048,
    Until: 11:36,1.000,
    Until: 13:17,0.000,
    Until: 13:19,1.000,
    Until: 14:04,0.048,
    Until: 14:09,1.000,
    Until: 20:19,0.000,
    Until: 20:21,1.000,
    Until: 21:06,0.048,
    Until: 21:11,1.000,
    Until: 21:14,0.000,
    Until: 21:16,1.000,
    Until: 22:01,0.048,
    Until: 22:06,1.000,
    Until: 23:43,0.000,
    Until: 23:45,1.000,
    Until: 24:00,0.048,
    Through: 12/12,
    For: AllDays,
    Until: 00:30,0.048,
    Until: 00:35,1.000,
    Until: 24:00,0.000,
    Through: 12/13,
    For: AllDays,
    Until: 24:00,0.000,
    Through: 12/14,
    For: AllDays,
    Until: 06:44,0.000,
    Until: 06:46,1.000,
    Until: 07:31,0.048,
    Until: 07:36,1.000,
    Until: 11:40,0.000,
    Until: 11:42,1.000,
    Until: 12:27,0.048,
    Until: 12:32,1.000,
    Until: 12:33,0.000,
    Until: 12:35,1.000,
    Until: 13:20,0.048,
    Until: 13:25,1.000,
    Until: 17:04,0.000,
    Until: 17:06,1.000,
    Until: 17:51,0.048,
    Until: 17:56,1.000,
    Until: 20:32,0.000,
    Until: 20:34,1.000,
    Until: 21:19,0.048,
    Until: 21:24,1.000,
    Until: 21:48,0.000,
    Until: 21:50,1.000,
    Until: 22:35,0.048,
    Until: 22:40,1.000,
    Until: 24:00,0.000,
    Through: 12/15,
    For: AllDays,
    Until: 05:39,0.000,
    Until: 05:41,1.000,
    Until: 06:26,0.048,
    Until: 06:31,1.000,
    Until: 17:45,0.000,
    Until: 17:47,1.000,
    Until: 18:32,0.048,
    Until: 18:37,1.000,
    Until: 20:28,0.000,
    Until: 20:30,1.000,
    Until: 21:15,0.048,
    Until: 21:20,1.000,
    Until: 22:38,0.000,
    Until: 22:40,1.000,
    Until: 23:25,0.048,
    Until: 23:30,1.000,
    Until: 24:00,0.000,
    Through: 12/16,
    For: AllDays,
    Until: 05:59,0.000,
    Until: 06:01,1.000,
    Until: 06:46,0.048,
    Until: 06:51,1.000,
    Until: 10:49,0.000,
    Until: 10:51,1.000,
    Until: 11:36,0.048,
    Until: 11:41,1.000,
    Until: 11:52,0.000,
    Until: 11:54,1.000,
    Until: 12:39,0.048,
    Until: 12:44,1.000,
    Until: 13:20,0.000,
    Until: 13:22,1.000,
    Until: 14:07,0.048,
    Until: 14:12,1.000,
    Until: 17:17,0.000,
    Until: 17:19,1.000,
    Until: 18:04,0.048,
    Until: 18:09,1.000,
    Until: 20:44,0.000,
    Until: 20:46,1.000,
    Until: 21:31,0.048,
    Until: 21:36,1.000,
    Until: 21:37,0.000,
    Until: 21:39,1.000,
    Until: 22:24,0.048,
    Until: 22:29,1.000,
    Until: 22:47,0.000,
    Until: 22:49,1.000,
    Until: 23:34,0.048,
    Until: 23:39,1.000,
    Until: 24:00,0.000,
    Through: 12/17,
    For: AllDays,
    Until: 11:50,0.000,
    Until: 11:52,1.000,
    Until: 12:37,0.048,
    Until: 12:42,1.000,
    Until: 12:47,0.000,
    Until: 12:49,1.000,
    Until: 13:34,0.048,
    Until: 13:39,1.000,
    Until: 16:59,0.000,
    Until: 17:01,1.000,
    Until: 17:46,0.048,
    Until: 17:51,1.000,
    Until: 20:45,0.000,
    Until: 20:47,1.000,
    Until: 21:32,0.048,
    Until: 21:37,1.000,
    Until: 21:53,0.000,
    Until: 21:55,1.000,
    Until: 22:40,0.048,
    Until: 22:45,1.000,
    Until: 22:46,0.000,
    Until: 22:48,1.000,
    Until: 23:33,0.048,
    Until: 23:38,1.000,
    Until: 24:00,0.000,
    Through: 12/18,
    For: AllDays,
    Until: 06:03,0.000,
    Until: 06:05,1.000,
    Until: 06:50,0.048,
    Until: 06:55,1.000,
    Until: 12:29,0.000,
    Until: 12:31,1.000,
    Until: 13:16,0.048,
    Until: 13:21,1.000,
    Until: 18:06,0.000,
    Until: 18:08,1.000,
    Until: 18:53,0.048,
    Until: 18:58,1.000,
    Until: 20:25,0.000,
    Until: 20:27,1.000,
    Until: 21:12,0.048,
    Until: 21:17,1.000,
    Until: 21:44,0.000,
    Until: 21:46,1.000,
    Until: 22:31,0.048,
    Until: 22:36,1.000,
    Until: 22:37,0.000,
    Until: 22:39,1.000,
    Until: 23:24,0.048,
    Until: 23:29,1.000,
    Until: 24:00,0.000,
    Through: 12/19,
    For: AllDays,
    Until: 24:00,0.000,
    Through: 12/20,
    For: AllDays,
    Until: 24:00,0.000,
    Through: 12/21,
    For: AllDays,
    Until: 11:43,0.000,
    Until: 11:45,1.000,
    Until: 12:30,0.048,
    Until: 12:35,1.000,
    Until: 12:45,0.000,
    Until: 12:47,1.000,
    Until: 13:32,0.048,
    Until: 13:37,1.000,
    Until: 15:54,0.000,
    Until: 15:56,1.000,
    Until: 16:41,0.048,
    Until: 16:46,1.000,
    Until: 16:59,0.000,
    Until: 17:01,1.000,
    Until: 17:46,0.048,
    Until: 17:51,1.000,
    Until: 20:17,0.000,
    Until: 20:19,1.000,
    Until: 21:04,0.048,
    Until: 21:09,1.000,
    Until: 21:10,0.000,
    Until: 21:12,1.000,
    Until: 21:57,0.048,
    Until: 22:02,1.000,
    Until: 22:32,0.000,
    Until: 22:34,1.000,
    Until: 23:19,0.048,
    Until: 23:24,1.000,
    Until: 24:00,0.000,
    Through: 12/22,
    For: AllDays,
    Until: 11:13,0.000,
    Until: 11:15,1.000,
    Until: 12:00,0.048,
    Until: 12:05,1.000,
    Until: 18:19,0.000,
    Until: 18:21,1.000,
    Until: 19:06,0.048,
    Until: 19:11,1.000,
    Until: 21:36,0.000,
    Until: 21:38,1.000,
    Until: 22:23,0.048,
    Until: 22:28,1.000,
    Until: 22:40,0.000,
    Until: 22:42,1.000,
    Until: 23:27,0.048,
    Until: 23:32,1.000,
    Until: 24:00,0.000,
    Through: 12/23,
    For: AllDays,
    Until: 10:55,0.000,
    Until: 10:57,1.000,
    Until: 11:42,0.048,
    Until: 11:47,1.000,
    Until: 13:01,0.000,
    Until: 13:03,1.000,
    Until: 13:48,0.048,
    Until: 13:53,1.000,
    Until: 20:32,0.000,
    Until: 20:34,1.000,
    Until: 21:19,0.048,
    Until: 21:24,1.000,
    Until: 21:25,0.000,
    Until: 21:27,1.000,
    Until: 22:12,0.048,
    Until: 22:17,1.000,
    Until: 22:47,0.000,
    Until: 22:49,1.000,
    Until: 23:34,0.048,
    Until: 23:39,1.000,
    Until: 24:00,0.000,
    Through: 12/24,
    For: AllDays,
    Until: 10:24,0.000,
    Until: 10:26,1.000,
    Until: 11:11,0.048,
    Until: 11:16,1.000,
    Until: 12:30,0.000,
    Until: 12:32,1.000,
    Until: 13:17,0.048,
    Until: 13:22,1.000,
    Until: 13:37,0.000,
    Until: 13:39,1.000,
    Until: 14:24,0.048,
    Until: 14:29,1.000,
    Until: 16:41,0.000,
    Until: 16:43,1.000,
    Until: 17:28,0.048,
    Until: 17:33,1.000,
    Until: 20:33,0.000,
    Until: 20:35,1.000,
    Until: 21:20,0.048,
    Until: 21:25,1.000,
    Until: 21:43,0.000,
    Until: 21:45,1.000,
    Until: 22:30,0.048,
    Until: 22:35,1.000,
    Until: 24:00,0.000,
    Through: 12/25,
    For: AllDays,
    Until: 11:32,0.000,
    Until: 11:34,1.000,
    Until: 12:19,0.048,
    Until: 12:24,1.000,
    Until: 17:00,0.000,
    Until: 17:02,1.000,
    Until: 17:47,0.048,
    Until: 17:52,1.000,
    Until: 17:58,0.000,
    Until: 18:00,1.000,
    Until: 18:45,0.048,
    Until: 18:50,1.000,
    Until: 21:28,0.000,
    Until: 21:30,1.000,
    Until: 22:15,0.048,
    Until: 22:20,1.000,
    Until: 22:21,0.000,
    Until: 22:23,1.000,
    Until: 23:08,0.048,
    Until: 23:13,1.000,
    Until: 23:25,0.000,
    Until: 23:27,1.000,
    Until: 24:00,0.048,
    Through: 12/26,
    For: AllDays,
    Until: 00:12,0.048,
    Until: 00:17,1.000,
    Until: 24:00,0.000,
    Through: 12/27,
    For: AllDays,
    Until: 24:00,0.000,
    Through: 12/28,
    For: AllDays,
    Until: 10:24,0.000,
    Until: 10:26,1.000,
    Until: 11:11,0.048,
    Until: 11:16,1.000,
    Until: 11:40,0.000,
    Until: 11:42,1.000,
    Until: 12:27,0.048,
    Until: 12:32,1.000,
    Until: 19:08,0.000,
    Until: 19:10,1.000,
    Until: 19:55,0.048,
    Until: 20:00,1.000,
    Until: 21:33,0.000,
    Until: 21:35,1.000,
    Until: 22:20,0.048,
    Until: 22:25,1.000,
    Until: 22:38,0.000,
    Until: 22:40,1.000,
    Until: 23:25,0.048,
    Until: 23:30,1.000,
    Until: 23:38,0.000,
    Until: 23:40,1.000,
    Until: 24:00,0.048,
    Through: 12/29,
    For: AllDays,
    Until: 00:25,0.048,
    Until: 00:30,1.000,
    Until: 12:24,0.000,
    Until: 12:26,1.000,
    Until: 13:11,0.048,
    Until: 13:16,1.000,
    Until: 18:42,0.000,
    Until: 18:44,1.000,
    Until: 19:29,0.048,
    Until: 19:34,1.000,
    Until: 20:46,0.000,
    Until: 20:48,1.000,
    Until: 21:33,0.048,
    Until: 21:38,1.000,
    Until: 23:04,0.000,
    Until: 23:06,1.000,
    Until: 23:51,0.048,
    Until: 23:56,1.000,
    Until: 24:00,0.000,
    Through: 12/30,
    For: AllDays,
    Until: 07:44,0.000,
    Until: 07:46,1.000,
    Until: 08:31,0.048,
    Until: 08:36,1.000,
    Until: 12:46,0.000,
    Until: 12:48,1.000,
    Until: 13:33,0.048,
    Until: 13:38,1.000,
    Until: 16:28,0.000,
    Until: 16:30,1.000,
    Until: 17:15,0.048,
    Until: 17:20,1.000,
    Until: 20:02,0.000,
    Until: 20:04,1.000,
    Until: 20:49,0.048,
    Until: 20:54,1.000,
    Until: 21:20,0.000,
    Until: 21:22,1.000,
    Until: 22:07,0.048,
    Until: 22:12,1.000,
    Until: 22:15,0.000,
    Until: 22:17,1.000,
    Until: 23:02,0.048,
    Until: 23:07,1.000,
    Until: 24:00,0.000,
    Through: 12/31,
    For: AllDays,
    Until: 09:00,0.000,
    Until: 09:02,1.000,
    Until: 09:47,0.048,
    Until: 09:52,1.000,
    Until: 11:13,0.000,
    Until: 11:15,1.000,
    Until: 12:00,0.048,
    Until: 12:05,1.000,
    Until: 12:52,0.000,
    Until: 12:54,1.000,
    Until: 13:39,0.048,
    Until: 13:44,1.000,
    Until: 18:21,0.000,
    Until: 18:23,1.000,
    Until: 19:08,0.048,
    Until: 19:13,1.000,
    Until: 20:36,0.000,
    Until: 20:38,1.000,
    Until: 21:23,0.048,
    Until: 21:28,1.000,
    Until: 22:03,0.000,
    Until: 22:05,1.000,
    Until: 22:50,0.048,
    Until: 22:55,1.000,
    Until: 23:00,0.000,
    Until: 23:02,1.000,
    Until: 23:47,0.048,
    Until: 23:52,1.000,
    Until: 24:00,0.000,
    Through: 1/2,
    For: AllDays,
    Until: 00:01,1.000,
    Until: 24:00,0.000;

Schedule:Compact,
    AB_2_Tor_Schedule,       !- Name
    Fraction,                !- Schedule Type Limits Name
    Through: 1/1,
    For: AllDays,
    Until: 24:00,0.000,
    Through: 1/2,
    For: AllDays,
    Until: 24:00,0.000,
    Through: 1/3,
    For: AllDays,
    Until: 24:00,0.000,
    Through: 1/4,
    For: AllDays,
    Until: 24:00,0.000,
    Through: 1/5,
    For: AllDays,
    Until: 05:28,0.000,
    Until: 05:30,1.000,
    Until: 06:15,0.048,
    Until: 06:20,1.000,
    Until: 19:23,0.000,
    Until: 19:25,1.000,
    Until: 20:10,0.048,
    Until: 20:15,1.000,
    Until: 21:01,0.000,
    Until: 21:03,1.000,
    Until: 21:48,0.048,
    Until: 21:53,1.000,
    Until: 21:54,0.000,
    Until: 21:56,1.000,
    Until: 22:41,0.048,
    Until: 22:46,1.000,
    Until: 24:00,0.000,
    Through: 1/6,
    For: AllDays,
    Until: 12:16,0.000,
    Until: 12:18,1.000,
    Until: 13:03,0.048,
    Until: 13:08,1.000,
    Until: 13:46,0.000,
    Until: 13:48,1.000,
    Until: 14:33,0.048,
    Until: 14:38,1.000,
    Until: 17:15,0.000,
    Until: 17:17,1.000,
    Until: 18:02,0.048,
    Until: 18:07,1.000,
    Until: 18:33,0.000,
    Until: 18:35,1.000,
    Until: 19:20,0.048,
    Until: 19:25,1.000,
    Until: 19:47,0.000,
    Until: 19:49,1.000,
    Until: 20:34,0.048,
    Until: 20:39,1.000,
    Until: 21:06,0.000,
    Until: 21:08,1.000,
    Until: 21:53,0.048,
    Until: 21:58,1.000,
    Until: 22:35,0.000,
    Until: 22:37,1.000,
    Until: 23:22,0.048,
    Until: 23:27,1.000,
    Until: 24:00,0.000,
    Through: 1/7,
    For: AllDays,
    Until: 07:12,0.000,
    Until: 07:14,1.000,
    Until: 07:59,0.048,
    Until: 08:04,1.000,
    Until: 10:45,0.000,
    Until: 10:47,1.000,
    Until: 11:32,0.048,
    Until: 11:37,1.000,
    Until: 12:10,0.000,
    Until: 12:12,1.000,
    Until: 12:57,0.048,
    Until: 13:02,1.000,
    Until: 16:19,0.000,
    Until: 16:21,1.000,
    Until: 17:06,0.048,
    Until: 17:11,1.000,
    Until: 20:05,0.000,
    Until: 20:07,1.000,
    Until: 20:52,0.048,
    Until: 20:57,1.000,
    Until: 21:04,0.000,
    Until: 21:06,1.000,
    Until: 21:51,0.048,
    Until: 21:56,1.000,
    Until: 22:02,0.000,
    Until: 22:04,1.000,
    Until: 22:49,0.048,
    Until: 22:54,1.000,
    Until: 22:55,0.000,
    Until: 22:57,1.000,
    Until: 23:42,0.048,
    Until: 23:47,1.000,
    Until: 24:00,0.000,
    Through: 1/8,
    For: AllDays,
    Until: 05:45,0.000,
    Until: 05:47,1.000,
    Until: 06:32,0.048,
    Until: 06:37,1.000,
    Until: 16:49,0.000,
    Until: 16:51,1.000,
    Until: 17:36,0.048,
    Until: 17:41,1.000,
    Until: 21:11,0.000,
    Until: 21:13,1.000,
    Until: 21:58,0.048,
    Until: 22:03,1.000,
    Until: 22:36,0.000,
    Until: 22:38,1.000,
    Until: 23:23,0.048,
    Until: 23:28,1.000,
    Until: 24:00,0.000,
    Through: 1/9,
    For: AllDays,
    Until: 07:41,0.000,
    Until: 07:43,1.000,
    Until: 08:28,0.048,
    Until: 08:33,1.000,
    Until: 10:46,0.000,
    Until: 10:48,1.000,
    Until: 11:33,0.048,
    Until: 11:38,1.000,
    Until: 12:09,0.000,
    Until: 12:11,1.000,
    Until: 12:56,0.048,
    Until: 13:01,1.000,
    Until: 13:26,0.000,
    Until: 13:28,1.000,
    Until: 14:13,0.048,
    Until: 14:18,1.000,
    Until: 21:43,0.000,
    Until: 21:45,1.000,
    Until: 22:30,0.048,
    Until: 22:35,1.000,
    Until: 22:36,0.000,
    Until: 22:38,1.000,
    Until: 23:23,0.048,
    Until: 23:28,1.000,
    Until: 24:00,0.000,
    Through: 1/10,
    For: AllDays,
    Until: 24:00,0.000,
    Through: 1/11,
    For: AllDays,
    Until: 24:00,0.000,
    Through: 1/12,
    For: AllDays,
    Until: 08:39,0.000,
    Until: 08:41,1.000,
    Until: 09:26,0.048,
    Until: 09:31,1.000,
    Until: 12:47,0.000,
    Until: 12:49,1.000,
    Until: 13:34,0.048,
    Until: 13:39,1.000,
    Until: 17:34,0.000,
    Until: 17:36,1.000,
    Until: 18:21,0.048,
    Until: 18:26,1.000,
    Until: 21:02,0.000,
    Until: 21:04,1.000,
    Until: 21:49,0.048,
    Until: 21:54,1.000,
    Until: 22:15,0.000,
    Until: 22:17,1.000,
    Until: 23:02,0.048,
    Until: 23:07,1.000,
    Until: 24:00,0.000,
    Through: 1/13,
    For: AllDays,
    Until: 08:05,0.000,
    Until: 08:07,1.000,
    Until: 08:52,0.048,
    Until: 08:57,1.000,
    Until: 16:00,0.000,
    Until: 16:02,1.000,
    Until: 16:47,0.048,
    Until: 16:52,1.000,
    Until: 21:09,0.000,
    Until: 21:11,1.000,
    Until: 21:56,0.048,
    Until: 22:01,1.000,
    Until: 22:12,0.000,
    Until: 22:14,1.000,
    Until: 22:59,0.048,
    Until: 23:04,1.000,
    Until: 24:00,0.000,
    Through: 1/14,
    For: AllDays,
    Until: 08:09,0.000,
    Until: 08:11,1.000,
    Until: 08:56,0.048,
    Until: 09:01,1.000,
    Until: 12:59,0.000,
    Until: 13:01,1.000,
    Until: 13:46,0.048,
    Until: 13:51,1.000,
    Until: 17:31,0.000,
    Until: 17:33,1.000,
    Until: 18:18,0.048,
    Until: 18:23,1.000,
    Until: 21:47,0.000,
    Until: 21:49,1.000,
    Until: 22:34,0.048,
    Until: 22:39,1.000,
    Until: 22:40,0.000,
    Until: 22:42,1.000,
    Until: 23:27,0.048,
    Until: 23:32,1.000,
    Until: 23:33,0.000,
    Until: 23:35,1.000,
    Until: 24:00,0.048,
    Through: 1/15,
    For: AllDays,
    Until: 00:20,0.048,
    Until: 00:25,1.000,
    Until: 07:50,0.000,
    Until: 07:52,1.000,
    Until: 08:37,0.048,
    Until: 08:42,1.000,
    Until: 11:31,0.000,
    Until: 11:33,1.000,
    Until: 12:18,0.048,
    Until: 12:23,1.000,
    Until: 16:01,0.000,
    Until: 16:03,1.000,
    Until: 16:48,0.048,
    Until: 16:53,1.000,
    Until: 18:07,0.000,
    Until: 18:09,1.000,
    Until: 18:54,0.048,
    Until: 18:59,1.000,
    Until: 20:23,0.000,
    Until: 20:25,1.000,
    Until: 21:10,0.048,
    Until: 21:15,1.000,
    Until: 22:12,0.000,
    Until: 22:14,1.000,
    Until: 22:59,0.048,
    Until: 23:04,1.000,
    Until: 23:17,0.000,
    Until: 23:19,1.000,
    Until: 24:00,0.048,
    Through: 1/16,
    For: AllDays,
    Until: 00:04,0.048,
    Until: 00:09,1.000,
    Until: 06:22,0.000,
    Until: 06:24,1.000,
    Until: 07:09,0.048,
    Until: 07:14,1.000,
    Until: 13:09,0.000,
    Until: 13:11,1.000,
    Until: 13:56,0.048,
    Until: 14:01,1.000,
    Until: 17:25,0.000,
    Until: 17:27,1.000,
    Until: 18:12,0.048,
    Until: 18:17,1.000,
    Until: 21:25,0.000,
    Until: 21:27,1.000,
    Until: 22:12,0.048,
    Until: 22:17,1.000,
    Until: 22:22,0.000,
    Until: 22:24,1.000,
    Until: 23:09,0.048,
    Until: 23:14,1.000,
    Until: 23:33,0.000,
    Until: 23:35,1.000,
    Until: 24:00,0.048,
    Through: 1/17,
    For: AllDays,
    Until: 00:20,0.048,
    Until: 00:25,1.000,
    Until: 24:00,0.000,
    Through: 1/18,
    For: AllDays,
    Until: 24:00,0.000,
    Through: 1/19,
    For: AllDays,
    Until: 08:34,0.000,
    Until: 08:36,1.000,
    Until: 09:21,0.048,
    Until: 09:26,1.000,
    Until: 11:36,0.000,
    Until: 11:38,1.000,
    Until: 12:23,0.048,
    Until: 12:28,1.000,
    Until: 15:20,0.000,
    Until: 15:22,1.000,
    Until: 16:07,0.048,
    Until: 16:12,1.000,
    Until: 20:54,0.000,
    Until: 20:56,1.000,
    Until: 21:41,0.048,
    Until: 21:46,1.000,
    Until: 22:42,0.000,
    Until: 22:44,1.000,
    Until: 23:29,0.048,
    Until: 23:34,1.000,
    Until: 24:00,0.000,
    Through: 1/20,
    For: AllDays,
    Until: 11:50,0.000,
    Until: 11:52,1.000,
    Until: 12:37,0.048,
    Until: 12:42,1.000,
    Until: 15:41,0.000,
    Until: 15:43,1.000,
    Until: 16:28,0.048,
    Until: 16:33,1.000,
    Until: 21:12,0.000,
    Until: 21:14,1.000,
    Until: 21:59,0.048,
    Until: 22:04,1.000,
    Until: 22:53,0.000,
    Until: 22:55,1.000,
    Until: 23:40,0.048,
    Until: 23:45,1.000,
    Until: 24:00,0.000,
    Through: 1/21,
    For: AllDays,
    Until: 12:34,0.000,
    Until: 12:36,1.000,
    Until: 13:21,0.048,
    Until: 13:26,1.000,
    Until: 14:33,0.000,
    Until: 14:35,1.000,
    Until: 15:20,0.048,
    Until: 15:25,1.000,
    Until: 18:08,0.000,
    Until: 18:10,1.000,
    Until: 18:55,0.048,
    Until: 19:00,1.000,
    Until: 19:26,0.000,
    Until: 19:28,1.000,
    Until: 20:13,0.048,
    Until: 20:18,1.000,
    Until: 21:35,0.000,
    Until: 21:37,1.000,
    Until: 22:22,0.048,
    Until: 22:27,1.000,
    Until: 22:28,0.000,
    Until: 22:30,1.000,
    Until: 23:15,0.048,
    Until: 23:20,1.000,
    Until: 23:21,0.000,
    Until: 23:23,1.000,
    Until: 24:00,0.048,
    Through: 1/22,
    For: AllDays,
    Until: 00:08,0.048,
    Until: 00:13,1.000,
    Until: 10:47,0.000,
    Until: 10:49,1.000,
    Until: 11:34,0.048,
    Until: 11:39,1.000,
    Until: 11:57,0.000,
    Until: 11:59,1.000,
    Until: 12:44,0.048,
    Until: 12:49,1.000,
    Until: 21:42,0.000,
    Until: 21:44,1.000,
    Until: 22:29,0.048,
    Until: 22:34,1.000,
    Until: 22:38,0.000,
    Until: 22:40,1.000,
    Until: 23:25,0.048,
    Until: 23:30,1.000,
    Until: 24:00,0.000,
    Through: 1/23,
    For: AllDays,
    Until: 10:44,0.000,
    Until: 10:46,1.000,
    Until: 11:31,0.048,
    Until: 11:36,1.000,
    Until: 21:13,0.000,
    Until: 21:15,1.000,
    Until: 22:00,0.048,
    Until: 22:05,1.000,
    Until: 22:06,0.000,
    Until: 22:08,1.000,
    Until: 22:53,0.048,
    Until: 22:58,1.000,
    Until: 23:33,0.000,
    Until: 23:35,1.000,
    Until: 24:00,0.048,
    Through: 1/24,
    For: AllDays,
    Until: 00:20,0.048,
    Until: 00:25,1.000,
    Until: 24:00,0.000,
    Through: 1/25,
    For: AllDays,
    Until: 24:00,0.000,
    Through: 1/26,
    For: AllDays,
    Until: 05:23,0.000,
    Until: 05:25,1.000,
    Until: 06:10,0.048,
    Until: 06:15,1.000,
    Until: 11:35,0.000,
    Until: 11:37,1.000,
    Until: 12:22,0.048,
    Until: 12:27,1.000,
    Until: 22:02,0.000,
    Until: 22:04,1.000,
    Until: 22:49,0.048,
    Until: 22:54,1.000,
    Until: 22:56,0.000,
    Until: 22:58,1.000,
    Until: 23:43,0.048,
    Until: 23:48,1.000,
    Until: 24:00,0.000,
    Through: 1/27,
    For: AllDays,
    Until: 07:06,0.000,
    Until: 07:08,1.000,
    Until: 07:53,0.048,
    Until: 07:58,1.000,
    Until: 10:49,0.000,
    Until: 10:51,1.000,
    Until: 11:36,0.048,
    Until: 11:41,1.000,
    Until: 12:37,0.000,
    Until: 12:39,1.000,
    Until: 13:24,0.048,
    Until: 13:29,1.000,
    Until: 17:17,0.000,
    Until: 17:19,1.000,
    Until: 18:04,0.048,
    Until: 18:09,1.000,
    Until: 18:53,0.000,
    Until: 18:55,1.000,
    Until: 19:40,0.048,
    Until: 19:45,1.000,
    Until: 20:32,0.000,
    Until: 20:34,1.000,
    Until: 21:19,0.048,
    Until: 21:24,1.000,
    Until: 21:30,0.000,
    Until: 21:32,1.000,
    Until: 22:17,0.048,
    Until: 22:22,1.000,
    Until: 22:25,0.000,
    Until: 22:27,1.000,
    Until: 23:12,0.048,
    Until: 23:17,1.000,
    Until: 24:00,0.000,
    Through: 1/28,
    For: AllDays,
    Until: 06:41,0.000,
    Until: 06:43,1.000,
    Until: 07:28,0.048,
    Until: 07:33,1.000,
    Until: 12:21,0.000,
    Until: 12:23,1.000,
    Until: 13:08,0.048,
    Until: 13:13,1.000,
    Until: 16:23,0.000,
    Until: 16:25,1.000,
    Until: 17:10,0.048,
    Until: 17:15,1.000,
    Until: 19:52,0.000,
    Until: 19:54,1.000,
    Until: 20:39,0.048,
    Until: 20:44,1.000,
    Until: 20:54,0.000,
    Until: 20:56,1.000,
    Until: 21:41,0.048,
    Until: 21:46,1.000,
    Until: 24:00,0.000,
    Through: 1/29,
    For: AllDays,
    Until: 11:39,0.000,
    Until: 11:41,1.000,
    Until: 12:26,0.048,
    Until: 12:31,1.000,
    Until: 13:30,0.000,
    Until: 13:32,1.000,
    Until: 14:17,0.048,
    Until: 14:22,1.000,
    Until: 21:50,0.000,
    Until: 21:52,1.000,
    Until: 22:37,0.048,
    Until: 22:42,1.000,
    Until: 22:43,0.000,
    Until: 22:45,1.000,
    Until: 23:30,0.048,
    Until: 23:35,1.000,
    Until: 24:00,0.000,
    Through: 1/30,
    For: AllDays,
    Until: 10:21,0.000,
    Until: 10:23,1.000,
    Until: 11:08,0.048,
    Until: 11:13,1.000,
    Until: 12:19,0.000,
    Until: 12:21,1.000,
    Until: 13:06,0.048,
    Until: 13:11,1.000,
    Until: 17:53,0.000,
    Until: 17:55,1.000,
    Until: 18:40,0.048,
    Until: 18:45,1.000,
    Until: 22:00,0.000,
    Until: 22:02,1.000,
    Until: 22:47,0.048,
    Until: 22:52,1.000,
    Until: 22:53,0.000,
    Until: 22:55,1.000,
    Until: 23:40,0.048,
    Until: 23:45,1.000,
    Until: 24:00,0.000,
    Through: 1/31,
    For: AllDays,
    Until: 24:00,0.000,
    Through: 2/1,
    For: AllDays,
    Until: 24:00,0.000,
    Through: 2/2,
    For: AllDays,
    Until: 12:07,0.000,
    Until: 12:09,1.000,
    Until: 12:54,0.048,
    Until: 12:59,1.000,
    Until: 15:56,0.000,
    Until: 15:58,1.000,
    Until: 16:43,0.048,
    Until: 16:48,1.000,
    Until: 21:46,0.000,
    Until: 21:48,1.000,
    Until: 22:33,0.048,
    Until: 22:38,1.000,
    Until: 23:14,0.000,
    Until: 23:16,1.000,
    Until: 24:00,0.048,
    Through: 2/3,
    For: AllDays,
    Until: 00:01,0.048,
    Until: 00:06,1.000,
    Until: 07:00,0.000,
    Until: 07:02,1.000,
    Until: 07:47,0.048,
    Until: 07:52,1.000,
    Until: 21:08,0.000,
    Until: 21:10,1.000,
    Until: 21:55,0.048,
    Until: 22:00,1.000,
    Until: 22:02,0.000,
    Until: 22:04,1.000,
    Until: 22:49,0.048,
    Until: 22:54,1.000,
    Until: 22:55,0.000,
    Until: 22:57,1.000,
    Until: 23:42,0.048,
    Until: 23:47,1.000,
    Until: 24:00,0.000,
    Through: 2/4,
    For: AllDays,
    Until: 10:37,0.000,
    Until: 10:39,1.000,
    Until: 11:24,0.048,
    Until: 11:29,1.000,
    Until: 16:01,0.000,
    Until: 16:03,1.000,
    Until: 16:48,0.048,
    Until: 16:53,1.000,
    Until: 21:58,0.000,
    Until: 22:00,1.000,
    Until: 22:45,0.048,
    Until: 22:50,1.000,
    Until: 22:51,0.000,
    Until: 22:53,1.000,
    Until: 23:38,0.048,
    Until: 23:43,1.000,
    Until: 24:00,0.000,
    Through: 2/5,
    For: AllDays,
    Until: 07:36,0.000,
    Until: 07:38,1.000,
    Until: 08:23,0.048,
    Until: 08:28,1.000,
    Until: 10:00,0.000,
    Until: 10:02,1.000,
    Until: 10:47,0.048,
    Until: 10:52,1.000,
    Until: 16:18,0.000,
    Until: 16:20,1.000,
    Until: 17:05,0.048,
    Until: 17:10,1.000,
    Until: 19:45,0.000,
    Until: 19:47,1.000,
    Until: 20:32,0.048,
    Until: 20:37,1.000,
    Until: 21:14,0.000,
    Until: 21:16,1.000,
    Until: 22:01,0.048,
    Until: 22:06,1.000,
    Until: 22:42,0.000,
    Until: 22:44,1.000,
    Until: 23:29,0.048,
    Until: 23:34,1.000,
    Until: 24:00,0.000,
    Through: 2/6,
    For: AllDays,
    Until: 06:27,0.000,
    Until: 06:29,1.000,
    Until: 07:14,0.048,
    Until: 07:19,1.000,
    Until: 13:00,0.000,
    Until: 13:02,1.000,
    Until: 13:47,0.048,
    Until: 13:52,1.000,
    Until: 19:39,0.000,
    Until: 19:41,1.000,
    Until: 20:26,0.048,
    Until: 20:31,1.000,
    Until: 20:58,0.000,
    Until: 21:00,1.000,
    Until: 21:45,0.048,
    Until: 21:50,1.000,
    Until: 23:01,0.000,
    Until: 23:03,1.000,
    Until: 23:48,0.048,
    Until: 23:53,1.000,
    Until: 24:00,0.000,
    Through: 2/7,
    For: AllDays,
    Until: 24:00,0.000,
    Through: 2/8,
    For: AllDays,
    Until: 24:00,0.000,
    Through: 2/9,
    For: AllDays,
    Until: 13:33,0.000,
    Until: 13:35,1.000,
    Until: 14:20,0.048,
    Until: 14:25,1.000,
    Until: 21:22,0.000,
    Until: 21:24,1.000,
    Until: 22:09,0.048,
    Until: 22:14,1.000,
    Until: 24:00,0.000,
    Through: 2/10,
    For: AllDays,
    Until: 10:49,0.000,
    Until: 10:51,1.000,
    Until: 11:36,0.048,
    Until: 11:41,1.000,
    Until: 16:18,0.000,
    Until: 16:20,1.000,
    Until: 17:05,0.048,
    Until: 17:10,1.000,
    Until: 17:36,0.000,
    Until: 17:38,1.000,
    Until: 18:23,0.048,
    Until: 18:28,1.000,
    Until: 20:47,0.000,
    Until: 20:49,1.000,
    Until: 21:34,0.048,
    Until: 21:39,1.000,
    Until: 21:44,0.000,
    Until: 21:46,1.000,
    Until: 22:31,0.048,
    Until: 22:36,1.000,
    Until: 23:28,0.000,
    Until: 23:30,1.000,
    Until: 24:00,0.048,
    Through: 2/11,
    For: AllDays,
    Until: 00:15,0.048,
    Until: 00:20,1.000,
    Until: 12:13,0.000,
    Until: 12:15,1.000,
    Until: 13:00,0.048,
    Until: 13:05,1.000,
    Until: 17:04,0.000,
    Until: 17:06,1.000,
    Until: 17:51,0.048,
    Until: 17:56,1.000,
    Until: 20:56,0.000,
    Until: 20:58,1.000,
    Until: 21:43,0.048,
    Until: 21:48,1.000,
    Until: 21:50,0.000,
    Until: 21:52,1.000,
    Until: 22:37,0.048,
    Until: 22:42,1.000,
    Until: 23:30,0.000,
    Until: 23:32,1.000,
    Until: 24:00,0.048,
    Through: 2/12,
    For: AllDays,
    Until: 00:17,0.048,
    Until: 00:22,1.000,
    Until: 10:34,0.000,
    Until: 10:36,1.000,
    Until: 11:21,0.048,
    Until: 11:26,1.000,
    Until: 16:57,0.000,
    Until: 16:59,1.000,
    Until: 17:44,0.048,
    Until: 17:49,1.000,
    Until: 17:59,0.000,
    Until: 18:01,1.000,
    Until: 18:46,0.048,
    Until: 18:51,1.000,
    Until: 20:53,0.000,
    Until: 20:55,1.000,
    Until: 21:40,0.048,
    Until: 21:45,1.000,
    Until: 22:10,0.000,
    Until: 22:12,1.000,
    Until: 22:57,0.048,
    Until: 23:02,1.000,
    Until: 23:15,0.000,
    Until: 23:17,1.000,
    Until: 24:00,0.048,
    Through: 2/13,
    For: AllDays,
    Until: 00:02,0.048,
    Until: 00:07,1.000,
    Until: 10:46,0.000,
    Until: 10:48,1.000,
    Until: 11:33,0.048,
    Until: 11:38,1.000,
    Until: 21:00,0.000,
    Until: 21:02,1.000,
    Until: 21:47,0.048,
    Until: 21:52,1.000,
    Until: 23:03,0.000,
    Until: 23:05,1.000,
    Until: 23:50,0.048,
    Until: 23:55,1.000,
    Until: 24:00,0.000,
    Through: 2/14,
    For: AllDays,
    Until: 24:00,0.000,
    Through: 2/15,
    For: AllDays,
    Until: 24:00,0.000,
    Through: 2/16,
    For: AllDays,
    Until: 10:39,0.000,
    Until: 10:41,1.000,
    Until: 11:26,0.048,
    Until: 11:31,1.000,
    Until: 21:08,0.000,
    Until: 21:10,1.000,
    Until: 21:55,0.048,
    Until: 22:00,1.000,
    Until: 24:00,0.000,
    Through: 2/17,
    For: AllDays,
    Until: 10:03,0.000,
    Until: 10:05,1.000,
    Until: 10:50,0.048,
    Until: 10:55,1.000,
    Until: 11:54,0.000,
    Until: 11:56,1.000,
    Until: 12:41,0.048,
    Until: 12:46,1.000,
    Until: 16:47,0.000,
    Until: 16:49,1.000,
    Until: 17:34,0.048,
    Until: 17:39,1.000,
    Until: 17:54,0.000,
    Until: 17:56,1.000,
    Until: 18:41,0.048,
    Until: 18:46,1.000,
    Until: 20:31,0.000,
    Until: 20:33,1.000,
    Until: 21:18,0.048,
    Until: 21:23,1.000,
    Until: 22:17,0.000,
    Until: 22:19,1.000,
    Until: 23:04,0.048,
    Until: 23:09,1.000,
    Until: 24:00,0.000,
    Through: 2/18,
    For: AllDays,
    Until: 15:41,0.000,
    Until: 15:43,1.000,
    Until: 16:28,0.048,
    Until: 16:33,1.000,
    Until: 21:19,0.000,
    Until: 21:21,1.000,
    Until: 22:06,0.048,
    Until: 22:11,1.000,
    Until: 22:19,0.000,
    Until: 22:21,1.000,
    Until: 23:06,0.048,
    Until: 23:11,1.000,
    Until: 23:13,0.000,
    Until: 23:15,1.000,
    Until: 24:00,0.048,
    Through: 2/19,
    For: AllDays,
    Until: 00:00,0.048,
    Until: 00:05,1.000,
    Until: 11:04,0.000,
    Until: 11:06,1.000,
    Until: 11:51,0.048,
    Until: 11:56,1.000,
    Until: 12:53,0.000,
    Until: 12:55,1.000,
    Until: 13:40,0.048,
    Until: 13:45,1.000,
    Until: 16:18,0.000,
    Until: 16:20,1.000,
    Until: 17:05,0.048,
    Until: 17:10,1.000,
    Until: 21:02,0.000,
    Until: 21:04,1.000,
    Until: 21:49,0.048,
    Until: 21:54,1.000,
    Until: 21:55,0.000,
    Until: 21:57,1.000,
    Until: 22:42,0.048,
    Until: 22:47,1.000,
    Until: 24:00,0.000,
    Through: 2/20,
    For: AllDays,
    Until: 06:35,0.000,
    Until: 06:37,1.000,
    Until: 07:22,0.048,
    Until: 07:27,1.000,
    Until: 17:05,0.000,
    Until: 17:07,1.000,
    Until: 17:52,0.048,
    Until: 17:57,1.000,
    Until: 20:08,0.000,
    Until: 20:10,1.000,
    Until: 20:55,0.048,
    Until: 21:00,1.000,
    Until: 22:02,0.000,
    Until: 22:04,1.000,
    Until: 22:49,0.048,
    Until: 22:54,1.000,
    Until: 22:55,0.000,
    Until: 22:57,1.000,
    Until: 23:42,0.048,
    Until: 23:47,1.000,
    Until: 24:00,0.000,
    Through: 2/21,
    For: AllDays,
    Until: 24:00,0.000,
    Through: 2/22,
    For: AllDays,
    Until: 24:00,0.000,
    Through: 2/23,
    For: AllDays,
    Until: 12:45,0.000,
    Until: 12:47,1.000,
    Until: 13:32,0.048,
    Until: 13:37,1.000,
    Until: 14:46,0.000,
    Until: 14:48,1.000,
    Until: 15:33,0.048,
    Until: 15:38,1.000,
    Until: 21:18,0.000,
    Until: 21:20,1.000,
    Until: 22:05,0.048,
    Until: 22:10,1.000,
    Until: 22:14,0.000,
    Until: 22:16,1.000,
    Until: 23:01,0.048,
    Until: 23:06,1.000,
    Until: 24:00,0.000,
    Through: 2/24,
    For: AllDays,
    Until: 07:21,0.000,
    Until: 07:23,1.000,
    Until: 08:08,0.048,
    Until: 08:13,1.000,
    Until: 10:24,0.000,
    Until: 10:26,1.000,
    Until: 11:11,0.048,
    Until: 11:16,1.000,
    Until: 13:13,0.000,
    Until: 13:15,1.000,
    Until: 14:00,0.048,
    Until: 14:05,1.000,
    Until: 16:13,0.000,
    Until: 16:15,1.000,
    Until: 17:00,0.048,
    Until: 17:05,1.000,
    Until: 20:19,0.000,
    Until: 20:21,1.000,
    Until: 21:06,0.048,
    Until: 21:11,1.000,
    Until: 22:43,0.000,
    Until: 22:45,1.000,
    Until: 23:30,0.048,
    Until: 23:35,1.000,
    Until: 23:36,0.000,
    Until: 23:38,1.000,
    Until: 24:00,0.048,
    Through: 2/25,
    For: AllDays,
    Until: 00:23,0.048,
    Until: 00:28,1.000,
    Until: 12:15,0.000,
    Until: 12:17,1.000,
    Until: 13:02,0.048,
    Until: 13:07,1.000,
    Until: 16:47,0.000,
    Until: 16:49,1.000,
    Until: 17:34,0.048,
    Until: 17:39,1.000,
    Until: 18:05,0.000,
    Until: 18:07,1.000,
    Until: 18:52,0.048,
    Until: 18:57,1.000,
    Until: 21:18,0.000,
    Until: 21:20,1.000,
    Until: 22:05,0.048,
    Until: 22:10,1.000,
    Until: 22:11,0.000,
    Until: 22:13,1.000,
    Until: 22:58,0.048,
    Until: 23:03,1.000,
    Until: 23:04,0.000,
    Until: 23:06,1.000,
    Until: 23:51,0.048,
    Until: 23:56,1.000,
    Until: 24:00,0.000,
    Through: 2/26,
    For: AllDays,
    Until: 11:00,0.000,
    Until: 11:02,1.000,
    Until: 11:47,0.048,
    Until: 11:52,1.000,
    Until: 12:40,0.000,
    Until: 12:42,1.000,
    Until: 13:27,0.048,
    Until: 13:32,1.000,
    Until: 17:22,0.000,
    Until: 17:24,1.000,
    Until: 18:09,0.048,
    Until: 18:14,1.000,
    Until: 20:48,0.000,
    Until: 20:50,1.000,
    Until: 21:35,0.048,
    Until: 21:40,1.000,
    Until: 21:41,0.000,
    Until: 21:43,1.000,
    Until: 22:28,0.048,
    Until: 22:33,1.000,
    Until: 22:34,0.000,
    Until: 22:36,1.000,
    Until: 23:21,0.048,
    Until: 23:26,1.000,
    Until: 24:00,0.000,
    Through: 2/27,
    For: AllDays,
    Until: 10:15,0.000,
    Until: 10:17,1.000,
    Until: 11:02,0.048,
    Until: 11:07,1.000,
    Until: 11:33,0.000,
    Until: 11:35,1.000,
    Until: 12:20,0.048,
    Until: 12:25,1.000,
    Until: 22:39,0.000,
    Until: 22:41,1.000,
    Until: 23:26,0.048,
    Until: 23:31,1.000,
    Until: 23:32,0.000,
    Until: 23:34,1.000,
    Until: 24:00,0.048,
    Through: 2/28,
    For: AllDays,
    Until: 00:19,0.048,
    Until: 00:24,1.000,
    Until: 24:00,0.000,
    Through: 3/1,
    For: AllDays,
    Until: 24:00,0.000,
    Through: 3/2,
    For: AllDays,
    Until: 08:40,0.000,
    Until: 08:42,1.000,
    Until: 09:27,0.048,
    Until: 09:32,1.000,
    Until: 10:51,0.000,
    Until: 10:53,1.000,
    Until: 11:38,0.048,
    Until: 11:43,1.000,
    Until: 13:27,0.000,
    Until: 13:29,1.000,
    Until: 14:14,0.048,
    Until: 14:19,1.000,
    Until: 17:35,0.000,
    Until: 17:37,1.000,
    Until: 18:22,0.048,
    Until: 18:27,1.000,
    Until: 19:55,0.000,
    Until: 19:57,1.000,
    Until: 20:42,0.048,
    Until: 20:47,1.000,
    Until: 21:30,0.000,
    Until: 21:32,1.000,
    Until: 22:17,0.048,
    Until: 22:22,1.000,
    Until: 24:00,0.000,
    Through: 3/3,
    For: AllDays,
    Until: 13:15,0.000,
    Until: 13:17,1.000,
    Until: 14:02,0.048,
    Until: 14:07,1.000,
    Until: 21:09,0.000,
    Until: 21:11,1.000,
    Until: 21:56,0.048,
    Until: 22:01,1.000,
    Until: 22:08,0.000,
    Until: 22:10,1.000,
    Until: 22:55,0.048,
    Until: 23:00,1.000,
    Until: 24:00,0.000,
    Through: 3/4,
    For: AllDays,
    Until: 10:26,0.000,
    Until: 10:28,1.000,
    Until: 11:13,0.048,
    Until: 11:18,1.000,
    Until: 13:32,0.000,
    Until: 13:34,1.000,
    Until: 14:19,0.048,
    Until: 14:24,1.000,
    Until: 16:10,0.000,
    Until: 16:12,1.000,
    Until: 16:57,0.048,
    Until: 17:02,1.000,
    Until: 22:09,0.000,
    Until: 22:11,1.000,
    Until: 22:56,0.048,
    Until: 23:01,1.000,
    Until: 24:00,0.000,
    Through: 3/5,
    For: AllDays,
    Until: 08:47,0.000,
    Until: 08:49,1.000,
    Until: 09:34,0.048,
    Until: 09:39,1.000,
    Until: 10:40,0.000,
    Until: 10:42,1.000,
    Until: 11:27,0.048,
    Until: 11:32,1.000,
    Until: 18:06,0.000,
    Until: 18:08,1.000,
    Until: 18:53,0.048,
    Until: 18:58,1.000,
    Until: 20:21,0.000,
    Until: 20:23,1.000,
    Until: 21:08,0.048,
    Until: 21:13,1.000,
    Until: 22:30,0.000,
    Until: 22:32,1.000,
    Until: 23:17,0.048,
    Until: 23:22,1.000,
    Until: 24:00,0.000,
    Through: 3/6,
    For: AllDays,
    Until: 11:55,0.000,
    Until: 11:57,1.000,
    Until: 12:42,0.048,
    Until: 12:47,1.000,
    Until: 21:29,0.000,
    Until: 21:31,1.000,
    Until: 22:16,0.048,
    Until: 22:21,1.000,
    Until: 22:30,0.000,
    Until: 22:32,1.000,
    Until: 23:17,0.048,
    Until: 23:22,1.000,
    Until: 24:00,0.000,
    Through: 3/7,
    For: AllDays,
    Until: 24:00,0.000,
    Through: 3/8,
    For: AllDays,
    Until: 24:00,0.000,
    Through: 3/9,
    For: AllDays,
    Until: 06:56,0.000,
    Until: 06:58,1.000,
    Until: 07:43,0.048,
    Until: 07:48,1.000,
    Until: 10:59,0.000,
    Until: 11:01,1.000,
    Until: 11:46,0.048,
    Until: 11:51,1.000,
    Until: 17:26,0.000,
    Until: 17:28,1.000,
    Until: 18:13,0.048,
    Until: 18:18,1.000,
    Until: 20:34,0.000,
    Until: 20:36,1.000,
    Until: 21:21,0.048,
    Until: 21:26,1.000,
    Until: 24:00,0.000,
    Through: 3/10,
    For: AllDays,
    Until: 11:23,0.000,
    Until: 11:25,1.000,
    Until: 12:10,0.048,
    Until: 12:15,1.000,
    Until: 17:16,0.000,
    Until: 17:18,1.000,
    Until: 18:03,0.048,
    Until: 18:08,1.000,
    Until: 21:41,0.000,
    Until: 21:43,1.000,
    Until: 22:28,0.048,
    Until: 22:33,1.000,
    Until: 23:25,0.000,
    Until: 23:27,1.000,
    Until: 24:00,0.048,
    Through: 3/11,
    For: AllDays,
    Until: 00:12,0.048,
    Until: 00:17,1.000,
    Until: 12:11,0.000,
    Until: 12:13,1.000,
    Until: 12:58,0.048,
    Until: 13:03,1.000,
    Until: 17:50,0.000,
    Until: 17:52,1.000,
    Until: 18:37,0.048,
    Until: 18:42,1.000,
    Until: 21:22,0.000,
    Until: 21:24,1.000,
    Until: 22:09,0.048,
    Until: 22:14,1.000,
    Until: 24:00,0.000,
    Through: 3/12,
    For: AllDays,
    Until: 12:48,0.000,
    Until: 12:50,1.000,
    Until: 13:35,0.048,
    Until: 13:40,1.000,
    Until: 14:03,0.000,
    Until: 14:05,1.000,
    Until: 14:50,0.048,
    Until: 14:55,1.000,
    Until: 15:11,0.000,
    Until: 15:13,1.000,
    Until: 15:58,0.048,
    Until: 16:03,1.000,
    Until: 22:03,0.000,
    Until: 22:05,1.000,
    Until: 22:50,0.048,
    Until: 22:55,1.000,
    Until: 23:02,0.000,
    Until: 23:04,1.000,
    Until: 23:49,0.048,
    Until: 23:54,1.000,
    Until: 24:00,0.000,
    Through: 3/13,
    For: AllDays,
    Until: 12:56,0.000,
    Until: 12:58,1.000,
    Until: 13:43,0.048,
    Until: 13:48,1.000,
    Until: 21:03,0.000,
    Until: 21:05,1.000,
    Until: 21:50,0.048,
    Until: 21:55,1.000,
    Until: 21:56,0.000,
    Until: 21:58,1.000,
    Until: 22:43,0.048,
    Until: 22:48,1.000,
    Until: 24:00,0.000,
    Through: 3/14,
    For: AllDays,
    Until: 24:00,0.000,
    Through: 3/15,
    For: AllDays,
    Until: 24:00,0.000,
    Through: 3/16,
    For: AllDays,
    Until: 13:46,0.000,
    Until: 13:48,1.000,
    Until: 14:33,0.048,
    Until: 14:38,1.000,
    Until: 18:13,0.000,
    Until: 18:15,1.000,
    Until: 19:00,0.048,
    Until: 19:05,1.000,
    Until: 22:36,0.000,
    Until: 22:38,1.000,
    Until: 23:23,0.048,
    Until: 23:28,1.000,
    Until: 24:00,0.000,
    Through: 3/17,
    For: AllDays,
    Until: 11:45,0.000,
    Until: 11:47,1.000,
    Until: 12:32,0.048,
    Until: 12:37,1.000,
    Until: 13:01,0.000,
    Until: 13:03,1.000,
    Until: 13:48,0.048,
    Until: 13:53,1.000,
    Until: 16:57,0.000,
    Until: 16:59,1.000,
    Until: 17:44,0.048,
    Until: 17:49,1.000,
    Until: 21:19,0.000,
    Until: 21:21,1.000,
    Until: 22:06,0.048,
    Until: 22:11,1.000,
    Until: 22:27,0.000,
    Until: 22:29,1.000,
    Until: 23:14,0.048,
    Until: 23:19,1.000,
    Until: 24:00,0.000,
    Through: 3/18,
    For: AllDays,
    Until: 12:40,0.000,
    Until: 12:42,1.000,
    Until: 13:27,0.048,
    Until: 13:32,1.000,
    Until: 15:18,0.000,
    Until: 15:20,1.000,
    Until: 16:05,0.048,
    Until: 16:10,1.000,
    Until: 24:00,0.000,
    Through: 3/19,
    For: AllDays,
    Until: 11:26,0.000,
    Until: 11:28,1.000,
    Until: 12:13,0.048,
    Until: 12:18,1.000,
    Until: 12:45,0.000,
    Until: 12:47,1.000,
    Until: 13:32,0.048,
    Until: 13:37,1.000,
    Until: 21:30,0.000,
    Until: 21:32,1.000,
    Until: 22:17,0.048,
    Until: 22:22,1.000,
    Until: 23:12,0.000,
    Until: 23:14,1.000,
    Until: 23:59,0.048,
    Until: 24:00,1.000,
    Through: 3/20,
    For: AllDays,
    Until: 00:04,1.000,
    Until: 13:39,0.000,
    Until: 13:41,1.000,
    Until: 14:26,0.048,
    Until: 14:31,1.000,
    Until: 19:56,0.000,
    Until: 19:58,1.000,
    Until: 20:43,0.048,
    Until: 20:48,1.000,
    Until: 21:04,0.000,
    Until: 21:06,1.000,
    Until: 21:51,0.048,
    Until: 21:56,1.000,
    Until: 23:28,0.000,
    Until: 23:30,1.000,
    Until: 24:00,0.048,
    Through: 3/21,
    For: AllDays,
    Until: 00:15,0.048,
    Until: 00:20,1.000,
    Until: 24:00,0.000,
    Through: 3/22,
    For: AllDays,
    Until: 24:00,0.000,
    Through: 3/23,
    For: AllDays,
    Until: 08:06,0.000,
    Until: 08:08,1.000,
    Until: 08:53,0.048,
    Until: 08:58,1.000,
    Until: 15:44,0.000,
    Until: 15:46,1.000,
    Until: 16:31,0.048,
    Until: 16:36,1.000,
    Until: 20:41,0.000,
    Until: 20:43,1.000,
    Until: 21:28,0.048,
    Until: 21:33,1.000,
    Until: 21:53,0.000,
    Until: 21:55,1.000,
    Until: 22:40,0.048,
    Until: 22:45,1.000,
    Until: 23:10,0.000,
    Until: 23:12,1.000,
    Until: 23:57,0.048,
    Until: 24:00,1.000,
    Through: 3/24,
    For: AllDays,
    Until: 00:02,1.000,
    Until: 07:11,0.000,
    Until: 07:13,1.000,
    Until: 07:58,0.048,
    Until: 08:03,1.000,
    Until: 10:17,0.000,
    Until: 10:19,1.000,
    Until: 11:04,0.048,
    Until: 11:09,1.000,
    Until: 11:34,0.000,
    Until: 11:36,1.000,
    Until: 12:21,0.048,
    Until: 12:26,1.000,
    Until: 14:52,0.000,
    Until: 14:54,1.000,
    Until: 15:39,0.048,
    Until: 15:44,1.000,
    Until: 20:28,0.000,
    Until: 20:30,1.000,
    Until: 21:15,0.048,
    Until: 21:20,1.000,
    Until: 21:45,0.000,
    Until: 21:47,1.000,
    Until: 22:32,0.048,
    Until: 22:37,1.000,
    Until: 23:50,0.000,
    Until: 23:52,1.000,
    Until: 24:00,0.048,
    Through: 3/25,
    For: AllDays,
    Until: 00:37,0.048,
    Until: 00:42,1.000,
    Until: 10:51,0.000,
    Until: 10:53,1.000,
    Until: 11:38,0.048,
    Until: 11:43,1.000,
    Until: 12:33,0.000,
    Until: 12:35,1.000,
    Until: 13:20,0.048,
    Until: 13:25,1.000,
    Until: 16:28,0.000,
    Until: 16:30,1.000,
    Until: 17:15,0.048,
    Until: 17:20,1.000,
    Until: 20:58,0.000,
    Until: 21:00,1.000,
    Until: 21:45,0.048,
    Until: 21:50,1.000,
    Until: 22:25,0.000,
    Until: 22:27,1.000,
    Until: 23:12,0.048,
    Until: 23:17,1.000,
    Until: 24:00,0.000,
    Through: 3/26,
    For: AllDays,
    Until: 05:53,0.000,
    Until: 05:55,1.000,
    Until: 06:40,0.048,
    Until: 06:45,1.000,
    Until: 10:53,0.000,
    Until: 10:55,1.000,
    Until: 11:40,0.048,
    Until: 11:45,1.000,
    Until: 11:46,0.000,
    Until: 11:48,1.000,
    Until: 12:33,0.048,
    Until: 12:38,1.000,
    Until: 22:01,0.000,
    Until: 22:03,1.000,
    Until: 22:48,0.048,
    Until: 22:53,1.000,
    Until: 23:00,0.000,
    Until: 23:02,1.000,
    Until: 23:47,0.048,
    Until: 23:52,1.000,
    Until: 24:00,0.000,
    Through: 3/27,
    For: AllDays,
    Until: 13:32,0.000,
    Until: 13:34,1.000,
    Until: 14:19,0.048,
    Until: 14:24,1.000,
    Until: 16:38,0.000,
    Until: 16:40,1.000,
    Until: 17:25,0.048,
    Until: 17:30,1.000,
    Until: 20:54,0.000,
    Until: 20:56,1.000,
    Until: 21:41,0.048,
    Until: 21:46,1.000,
    Until: 22:09,0.000,
    Until: 22:11,1.000,
    Until: 22:56,0.048,
    Until: 23:01,1.000,
    Until: 23:04,0.000,
    Until: 23:06,1.000,
    Until: 23:51,0.048,
    Until: 23:56,1.000,
    Until: 24:00,0.000,
    Through: 3/28,
    For: AllDays,
    Until: 24:00,0.000,
    Through: 3/29,
    For: AllDays,
    Until: 24:00,0.000,
    Through: 3/30,
    For: AllDays,
    Until: 07:39,0.000,
    Until: 07:41,1.000,
    Until: 08:26,0.048,
    Until: 08:31,1.000,
    Until: 11:49,0.000,
    Until: 11:51,1.000,
    Until: 12:36,0.048,
    Until: 12:41,1.000,
    Until: 17:14,0.000,
    Until: 17:16,1.000,
    Until: 18:01,0.048,
    Until: 18:06,1.000,
    Until: 18:29,0.000,
    Until: 18:31,1.000,
    Until: 19:16,0.048,
    Until: 19:21,1.000,
    Until: 20:36,0.000,
    Until: 20:38,1.000,
    Until: 21:23,0.048,
    Until: 21:28,1.000,
    Until: 24:00,0.000,
    Through: 3/31,
    For: AllDays,
    Until: 08:20,0.000,
    Until: 08:22,1.000,
    Until: 09:07,0.048,
    Until: 09:12,1.000,
    Until: 13:33,0.000,
    Until: 13:35,1.000,
    Until: 14:20,0.048,
    Until: 14:25,1.000,
    Until: 17:17,0.000,
    Until: 17:19,1.000,
    Until: 18:04,0.048,
    Until: 18:09,1.000,
    Until: 21:53,0.000,
    Until: 21:55,1.000,
    Until: 22:40,0.048,
    Until: 22:45,1.000,
    Until: 22:54,0.000,
    Until: 22:56,1.000,
    Until: 23:41,0.048,
    Until: 23:46,1.000,
    Until: 24:00,0.000,
    Through: 4/1,
    For: AllDays,
    Until: 10:43,0.000,
    Until: 10:45,1.000,
    Until: 11:30,0.048,
    Until: 11:35,1.000,
    Until: 22:35,0.000,
    Until: 22:37,1.000,
    Until: 23:22,0.048,
    Until: 23:27,1.000,
    Until: 24:00,0.000,
    Through: 4/2,
    For: AllDays,
    Until: 12:14,0.000,
    Until: 12:16,1.000,
    Until: 13:01,0.048,
    Until: 13:06,1.000,
    Until: 21:23,0.000,
    Until: 21:25,1.000,
    Until: 22:10,0.048,
    Until: 22:15,1.000,
    Until: 22:30,0.000,
    Until: 22:32,1.000,
    Until: 23:17,0.048,
    Until: 23:22,1.000,
    Until: 23:23,0.000,
    Until: 23:25,1.000,
    Until: 24:00,0.048,
    Through: 4/3,
    For: AllDays,
    Until: 00:10,0.048,
    Until: 00:15,1.000,
    Until: 05:02,0.000,
    Until: 05:04,1.000,
    Until: 05:49,0.048,
    Until: 05:54,1.000,
    Until: 11:01,0.000,
    Until: 11:03,1.000,
    Until: 11:48,0.048,
    Until: 11:53,1.000,
    Until: 12:35,0.000,
    Until: 12:37,1.000,
    Until: 13:22,0.048,
    Until: 13:27,1.000,
    Until: 17:49,0.000,
    Until: 17:51,1.000,
    Until: 18:36,0.048,
    Until: 18:41,1.000,
    Until: 21:51,0.000,
    Until: 21:53,1.000,
    Until: 22:38,0.048,
    Until: 22:43,1.000,
    Until: 22:44,0.000,
    Until: 22:46,1.000,
    Until: 23:31,0.048,
    Until: 23:36,1.000,
    Until: 24:00,0.000,
    Through: 4/4,
    For: AllDays,
    Until: 24:00,0.000,
    Through: 4/5,
    For: AllDays,
    Until: 24:00,0.000,
    Through: 4/6,
    For: AllDays,
    Until: 08:25,0.000,
    Until: 08:27,1.000,
    Until: 09:12,0.048,
    Until: 09:17,1.000,
    Until: 12:02,0.000,
    Until: 12:04,1.000,
    Until: 12:49,0.048,
    Until: 12:54,1.000,
    Until: 14:50,0.000,
    Until: 14:52,1.000,
    Until: 15:37,0.048,
    Until: 15:42,1.000,
    Until: 18:35,0.000,
    Until: 18:37,1.000,
    Until: 19:22,0.048,
    Until: 19:27,1.000,
    Until: 19:47,0.000,
    Until: 19:49,1.000,
    Until: 20:34,0.048,
    Until: 20:39,1.000,
    Until: 21:22,0.000,
    Until: 21:24,1.000,
    Until: 22:09,0.048,
    Until: 22:14,1.000,
    Until: 24:00,0.000,
    Through: 4/7,
    For: AllDays,
    Until: 10:17,0.000,
    Until: 10:19,1.000,
    Until: 11:04,0.048,
    Until: 11:09,1.000,
    Until: 12:41,0.000,
    Until: 12:43,1.000,
    Until: 13:28,0.048,
    Until: 13:33,1.000,
    Until: 17:26,0.000,
    Until: 17:28,1.000,
    Until: 18:13,0.048,
    Until: 18:18,1.000,
    Until: 20:17,0.000,
    Until: 20:19,1.000,
    Until: 21:04,0.048,
    Until: 21:09,1.000,
    Until: 21:12,0.000,
    Until: 21:14,1.000,
    Until: 21:59,0.048,
    Until: 22:04,1.000,
    Until: 24:00,0.000,
    Through: 4/8,
    For: AllDays,
    Until: 07:59,0.000,
    Until: 08:01,1.000,
    Until: 08:46,0.048,
    Until: 08:51,1.000,
    Until: 12:48,0.000,
    Until: 12:50,1.000,
    Until: 13:35,0.048,
    Until: 13:40,1.000,
    Until: 16:08,0.000,
    Until: 16:10,1.000,
    Until: 16:55,0.048,
    Until: 17:00,1.000,
    Until: 20:16,0.000,
    Until: 20:18,1.000,
    Until: 21:03,0.048,
    Until: 21:08,1.000,
    Until: 22:28,0.000,
    Until: 22:30,1.000,
    Until: 23:15,0.048,
    Until: 23:20,1.000,
    Until: 23:32,0.000,
    Until: 23:34,1.000,
    Until: 24:00,0.048,
    Through: 4/9,
    For: AllDays,
    Until: 00:19,0.048,
    Until: 00:24,1.000,
    Until: 07:24,0.000,
    Until: 07:26,1.000,
    Until: 08:11,0.048,
    Until: 08:16,1.000,
    Until: 10:42,0.000,
    Until: 10:44,1.000,
    Until: 11:29,0.048,
    Until: 11:34,1.000,
    Until: 11:38,0.000,
    Until: 11:40,1.000,
    Until: 12:25,0.048,
    Until: 12:30,1.000,
    Until: 12:53,0.000,
    Until: 12:55,1.000,
    Until: 13:40,0.048,
    Until: 13:45,1.000,
    Until: 17:50,0.000,
    Until: 17:52,1.000,
    Until: 18:37,0.048,
    Until: 18:42,1.000,
    Until: 20:41,0.000,
    Until: 20:43,1.000,
    Until: 21:28,0.048,
    Until: 21:33,1.000,
    Until: 22:45,0.000,
    Until: 22:47,1.000,
    Until: 23:32,0.048,
    Until: 23:37,1.000,
    Until: 24:00,0.000,
    Through: 4/10,
    For: AllDays,
    Until: 12:41,0.000,
    Until: 12:43,1.000,
    Until: 13:28,0.048,
    Until: 13:33,1.000,
    Until: 17:49,0.000,
    Until: 17:51,1.000,
    Until: 18:36,0.048,
    Until: 18:41,1.000,
    Until: 21:49,0.000,
    Until: 21:51,1.000,
    Until: 22:36,0.048,
    Until: 22:41,1.000,
    Until: 23:10,0.000,
    Until: 23:12,1.000,
    Until: 23:57,0.048,
    Until: 24:00,1.000,
    Through: 4/11,
    For: AllDays,
    Until: 00:02,1.000,
    Until: 24:00,0.000,
    Through: 4/12,
    For: AllDays,
    Until: 24:00,0.000,
    Through: 4/13,
    For: AllDays,
    Until: 13:30,0.000,
    Until: 13:32,1.000,
    Until: 14:17,0.048,
    Until: 14:22,1.000,
    Until: 17:24,0.000,
    Until: 17:26,1.000,
    Until: 18:11,0.048,
    Until: 18:16,1.000,
    Until: 20:38,0.000,
    Until: 20:40,1.000,
    Until: 21:25,0.048,
    Until: 21:30,1.000,
    Until: 22:26,0.000,
    Until: 22:28,1.000,
    Until: 23:13,0.048,
    Until: 23:18,1.000,
    Until: 24:00,0.000,
    Through: 4/14,
    For: AllDays,
    Until: 11:26,0.000,
    Until: 11:28,1.000,
    Until: 12:13,0.048,
    Until: 12:18,1.000,
    Until: 16:50,0.000,
    Until: 16:52,1.000,
    Until: 17:37,0.048,
    Until: 17:42,1.000,
    Until: 21:03,0.000,
    Until: 21:05,1.000,
    Until: 21:50,0.048,
    Until: 21:55,1.000,
    Until: 22:22,0.000,
    Until: 22:24,1.000,
    Until: 23:09,0.048,
    Until: 23:14,1.000,
    Until: 23:30,0.000,
    Until: 23:32,1.000,
    Until: 24:00,0.048,
    Through: 4/15,
    For: AllDays,
    Until: 00:17,0.048,
    Until: 00:22,1.000,
    Until: 09:07,0.000,
    Until: 09:09,1.000,
    Until: 09:54,0.048,
    Until: 09:59,1.000,
    Until: 10:52,0.000,
    Until: 10:54,1.000,
    Until: 11:39,0.048,
    Until: 11:44,1.000,
    Until: 20:49,0.000,
    Until: 20:51,1.000,
    Until: 21:36,0.048,
    Until: 21:41,1.000,
    Until: 21:42,0.000,
    Until: 21:44,1.000,
    Until: 22:29,0.048,
    Until: 22:34,1.000,
    Until: 22:36,0.000,
    Until: 22:38,1.000,
    Until: 23:23,0.048,
    Until: 23:28,1.000,
    Until: 24:00,0.000,
    Through: 4/16,
    For: AllDays,
    Until: 13:31,0.000,
    Until: 13:33,1.000,
    Until: 14:18,0.048,
    Until: 14:23,1.000,
    Until: 18:02,0.000,
    Until: 18:04,1.000,
    Until: 18:49,0.048,
    Until: 18:54,1.000,
    Until: 21:31,0.000,
    Until: 21:33,1.000,
    Until: 22:18,0.048,
    Until: 22:23,1.000,
    Until: 22:41,0.000,
    Until: 22:43,1.000,
    Until: 23:28,0.048,
    Until: 23:33,1.000,
    Until: 24:00,0.000,
    Through: 4/17,
    For: AllDays,
    Until: 08:09,0.000,
    Until: 08:11,1.000,
    Until: 08:56,0.048,
    Until: 09:01,1.000,
    Until: 12:11,0.000,
    Until: 12:13,1.000,
    Until: 12:58,0.048,
    Until: 13:03,1.000,
    Until: 18:45,0.000,
    Until: 18:47,1.000,
    Until: 19:32,0.048,
    Until: 19:37,1.000,
    Until: 19:52,0.000,
    Until: 19:54,1.000,
    Until: 20:39,0.048,
    Until: 20:44,1.000,
    Until: 21:14,0.000,
    Until: 21:16,1.000,
    Until: 22:01,0.048,
    Until: 22:06,1.000,
    Until: 22:07,0.000,
    Until: 22:09,1.000,
    Until: 22:54,0.048,
    Until: 22:59,1.000,
    Until: 24:00,0.000,
    Through: 4/18,
    For: AllDays,
    Until: 24:00,0.000,
    Through: 4/19,
    For: AllDays,
    Until: 24:00,0.000,
    Through: 4/20,
    For: AllDays,
    Until: 12:39,0.000,
    Until: 12:41,1.000,
    Until: 13:26,0.048,
    Until: 13:31,1.000,
    Until: 21:12,0.000,
    Until: 21:14,1.000,
    Until: 21:59,0.048,
    Until: 22:04,1.000,
    Until: 22:26,0.000,
    Until: 22:28,1.000,
    Until: 23:13,0.048,
    Until: 23:18,1.000,
    Until: 23:38,0.000,
    Until: 23:40,1.000,
    Until: 24:00,0.048,
    Through: 4/21,
    For: AllDays,
    Until: 00:25,0.048,
    Until: 00:30,1.000,
    Until: 06:16,0.000,
    Until: 06:18,1.000,
    Until: 07:03,0.048,
    Until: 07:08,1.000,
    Until: 12:43,0.000,
    Until: 12:45,1.000,
    Until: 13:30,0.048,
    Until: 13:35,1.000,
    Until: 15:47,0.000,
    Until: 15:49,1.000,
    Until: 16:34,0.048,
    Until: 16:39,1.000,
    Until: 16:45,0.000,
    Until: 16:47,1.000,
    Until: 17:32,0.048,
    Until: 17:37,1.000,
    Until: 21:00,0.000,
    Until: 21:02,1.000,
    Until: 21:47,0.048,
    Until: 21:52,1.000,
    Until: 23:33,0.000,
    Until: 23:35,1.000,
    Until: 24:00,0.048,
    Through: 4/22,
    For: AllDays,
    Until: 00:20,0.048,
    Until: 00:25,1.000,
    Until: 11:14,0.000,
    Until: 11:16,1.000,
    Until: 12:01,0.048,
    Until: 12:06,1.000,
    Until: 12:49,0.000,
    Until: 12:51,1.000,
    Until: 13:36,0.048,
    Until: 13:41,1.000,
    Until: 18:26,0.000,
    Until: 18:28,1.000,
    Until: 19:13,0.048,
    Until: 19:18,1.000,
    Until: 20:05,0.000,
    Until: 20:07,1.000,
    Until: 20:52,0.048,
    Until: 20:57,1.000,
    Until: 21:10,0.000,
    Until: 21:12,1.000,
    Until: 21:57,0.048,
    Until: 22:02,1.000,
    Until: 22:03,0.000,
    Until: 22:05,1.000,
    Until: 22:50,0.048,
    Until: 22:55,1.000,
    Until: 22:56,0.000,
    Until: 22:58,1.000,
    Until: 23:43,0.048,
    Until: 23:48,1.000,
    Until: 24:00,0.000,
    Through: 4/23,
    For: AllDays,
    Until: 10:32,0.000,
    Until: 10:34,1.000,
    Until: 11:19,0.048,
    Until: 11:24,1.000,
    Until: 20:44,0.000,
    Until: 20:46,1.000,
    Until: 21:31,0.048,
    Until: 21:36,1.000,
    Until: 21:47,0.000,
    Until: 21:49,1.000,
    Until: 22:34,0.048,
    Until: 22:39,1.000,
    Until: 24:00,0.000,
    Through: 4/24,
    For: AllDays,
    Until: 13:39,0.000,
    Until: 13:41,1.000,
    Until: 14:26,0.048,
    Until: 14:31,1.000,
    Until: 17:04,0.000,
    Until: 17:06,1.000,
    Until: 17:51,0.048,
    Until: 17:56,1.000,
    Until: 19:49,0.000,
    Until: 19:51,1.000,
    Until: 20:36,0.048,
    Until: 20:41,1.000,
    Until: 21:58,0.000,
    Until: 22:00,1.000,
    Until: 22:45,0.048,
    Until: 22:50,1.000,
    Until: 24:00,0.000,
    Through: 4/25,
    For: AllDays,
    Until: 24:00,0.000,
    Through: 4/26,
    For: AllDays,
    Until: 24:00,0.000,
    Through: 4/27,
    For: AllDays,
    Until: 08:00,0.000,
    Until: 08:02,1.000,
    Until: 08:47,0.048,
    Until: 08:52,1.000,
    Until: 10:53,0.000,
    Until: 10:55,1.000,
    Until: 11:40,0.048,
    Until: 11:45,1.000,
    Until: 13:02,0.000,
    Until: 13:04,1.000,
    Until: 13:49,0.048,
    Until: 13:54,1.000,
    Until: 15:08,0.000,
    Until: 15:10,1.000,
    Until: 15:55,0.048,
    Until: 16:00,1.000,
    Until: 17:39,0.000,
    Until: 17:41,1.000,
    Until: 18:26,0.048,
    Until: 18:31,1.000,
    Until: 22:14,0.000,
    Until: 22:16,1.000,
    Until: 23:01,0.048,
    Until: 23:06,1.000,
    Until: 23:08,0.000,
    Until: 23:10,1.000,
    Until: 23:55,0.048,
    Until: 24:00,1.000,
    Through: 4/28,
    For: AllDays,
    Until: 00:00,1.000,
    Until: 07:51,0.000,
    Until: 07:53,1.000,
    Until: 08:38,0.048,
    Until: 08:43,1.000,
    Until: 09:49,0.000,
    Until: 09:51,1.000,
    Until: 10:36,0.048,
    Until: 10:41,1.000,
    Until: 15:12,0.000,
    Until: 15:14,1.000,
    Until: 15:59,0.048,
    Until: 16:04,1.000,
    Until: 20:06,0.000,
    Until: 20:08,1.000,
    Until: 20:53,0.048,
    Until: 20:58,1.000,
    Until: 21:40,0.000,
    Until: 21:42,1.000,
    Until: 22:27,0.048,
    Until: 22:32,1.000,
    Until: 22:46,0.000,
    Until: 22:48,1.000,
    Until: 23:33,0.048,
    Until: 23:38,1.000,
    Until: 24:00,0.000,
    Through: 4/29,
    For: AllDays,
    Until: 06:44,0.000,
    Until: 06:46,1.000,
    Until: 07:31,0.048,
    Until: 07:36,1.000,
    Until: 10:54,0.000,
    Until: 10:56,1.000,
    Until: 11:41,0.048,
    Until: 11:46,1.000,
    Until: 15:11,0.000,
    Until: 15:13,1.000,
    Until: 15:58,0.048,
    Until: 16:03,1.000,
    Until: 20:47,0.000,
    Until: 20:49,1.000,
    Until: 21:34,0.048,
    Until: 21:39,1.000,
    Until: 22:03,0.000,
    Until: 22:05,1.000,
    Until: 22:50,0.048,
    Until: 22:55,1.000,
    Until: 22:56,0.000,
    Until: 22:58,1.000,
    Until: 23:43,0.048,
    Until: 23:48,1.000,
    Until: 24:00,0.000,
    Through: 4/30,
    For: AllDays,
    Until: 11:07,0.000,
    Until: 11:09,1.000,
    Until: 11:54,0.048,
    Until: 11:59,1.000,
    Until: 12:40,0.000,
    Until: 12:42,1.000,
    Until: 13:27,0.048,
    Until: 13:32,1.000,
    Until: 15:26,0.000,
    Until: 15:28,1.000,
    Until: 16:13,0.048,
    Until: 16:18,1.000,
    Until: 18:44,0.000,
    Until: 18:46,1.000,
    Until: 19:31,0.048,
    Until: 19:36,1.000,
    Until: 20:01,0.000,
    Until: 20:03,1.000,
    Until: 20:48,0.048,
    Until: 20:53,1.000,
    Until: 22:18,0.000,
    Until: 22:20,1.000,
    Until: 23:05,0.048,
    Until: 23:10,1.000,
    Until: 23:11,0.000,
    Until: 23:13,1.000,
    Until: 23:58,0.048,
    Until: 24:00,1.000,
    Through: 5/1,
    For: AllDays,
    Until: 00:03,1.000,
    Until: 12:31,0.000,
    Until: 12:33,1.000,
    Until: 13:18,0.048,
    Until: 13:23,1.000,
    Until: 21:05,0.000,
    Until: 21:07,1.000,
    Until: 21:52,0.048,
    Until: 21:57,1.000,
    Until: 22:14,0.000,
    Until: 22:16,1.000,
    Until: 23:01,0.048,
    Until: 23:06,1.000,
    Until: 23:17,0.000,
    Until: 23:19,1.000,
    Until: 24:00,0.048,
    Through: 5/2,
    For: AllDays,
    Until: 00:04,0.048,
    Until: 00:09,1.000,
    Until: 24:00,0.000,
    Through: 5/3,
    For: AllDays,
    Until: 24:00,0.000,
    Through: 5/4,
    For: AllDays,
    Until: 05:57,0.000,
    Until: 05:59,1.000,
    Until: 06:44,0.048,
    Until: 06:49,1.000,
    Until: 12:40,0.000,
    Until: 12:42,1.000,
    Until: 13:27,0.048,
    Until: 13:32,1.000,
    Until: 19:23,0.000,
    Until: 19:25,1.000,
    Until: 20:10,0.048,
    Until: 20:15,1.000,
    Until: 21:25,0.000,
    Until: 21:27,1.000,
    Until: 22:12,0.048,
    Until: 22:17,1.000,
    Until: 23:38,0.000,
    Until: 23:40,1.000,
    Until: 24:00,0.048,
    Through: 5/5,
    For: AllDays,
    Until: 00:25,0.048,
    Until: 00:30,1.000,
    Until: 09:23,0.000,
    Until: 09:25,1.000,
    Until: 10:10,0.048,
    Until: 10:15,1.000,
    Until: 10:56,0.000,
    Until: 10:58,1.000,
    Until: 11:43,0.048,
    Until: 11:48,1.000,
    Until: 19:44,0.000,
    Until: 19:46,1.000,
    Until: 20:31,0.048,
    Until: 20:36,1.000,
    Until: 20:56,0.000,
    Until: 20:58,1.000,
    Until: 21:43,0.048,
    Until: 21:48,1.000,
    Until: 24:00,0.000,
    Through: 5/6,
    For: AllDays,
    Until: 08:35,0.000,
    Until: 08:37,1.000,
    Until: 09:22,0.048,
    Until: 09:27,1.000,
    Until: 09:53,0.000,
    Until: 09:55,1.000,
    Until: 10:40,0.048,
    Until: 10:45,1.000,
    Until: 11:43,0.000,
    Until: 11:45,1.000,
    Until: 12:30,0.048,
    Until: 12:35,1.000,
    Until: 18:13,0.000,
    Until: 18:15,1.000,
    Until: 19:00,0.048,
    Until: 19:05,1.000,
    Until: 20:17,0.000,
    Until: 20:19,1.000,
    Until: 21:04,0.048,
    Until: 21:09,1.000,
    Until: 21:12,0.000,
    Until: 21:14,1.000,
    Until: 21:59,0.048,
    Until: 22:04,1.000,
    Until: 24:00,0.000,
    Through: 5/7,
    For: AllDays,
    Until: 12:55,0.000,
    Until: 12:57,1.000,
    Until: 13:42,0.048,
    Until: 13:47,1.000,
    Until: 16:52,0.000,
    Until: 16:54,1.000,
    Until: 17:39,0.048,
    Until: 17:44,1.000,
    Until: 21:06,0.000,
    Until: 21:08,1.000,
    Until: 21:53,0.048,
    Until: 21:58,1.000,
    Until: 22:42,0.000,
    Until: 22:44,1.000,
    Until: 23:29,0.048,
    Until: 23:34,1.000,
    Until: 24:00,0.000,
    Through: 5/8,
    For: AllDays,
    Until: 10:44,0.000,
    Until: 10:46,1.000,
    Until: 11:31,0.048,
    Until: 11:36,1.000,
    Until: 12:15,0.000,
    Until: 12:17,1.000,
    Until: 13:02,0.048,
    Until: 13:07,1.000,
    Until: 16:16,0.000,
    Until: 16:18,1.000,
    Until: 17:03,0.048,
    Until: 17:08,1.000,
    Until: 20:13,0.000,
    Until: 20:15,1.000,
    Until: 21:00,0.048,
    Until: 21:05,1.000,
    Until: 22:19,0.000,
    Until: 22:21,1.000,
    Until: 23:06,0.048,
    Until: 23:11,1.000,
    Until: 24:00,0.000,
    Through: 5/9,
    For: AllDays,
    Until: 24:00,0.000,
    Through: 5/10,
    For: AllDays,
    Until: 24:00,0.000,
    Through: 5/11,
    For: AllDays,
    Until: 08:02,0.000,
    Until: 08:04,1.000,
    Until: 08:49,0.048,
    Until: 08:54,1.000,
    Until: 12:10,0.000,
    Until: 12:12,1.000,
    Until: 12:57,0.048,
    Until: 13:02,1.000,
    Until: 13:03,0.000,
    Until: 13:05,1.000,
    Until: 13:50,0.048,
    Until: 13:55,1.000,
    Until: 16:39,0.000,
    Until: 16:41,1.000,
    Until: 17:26,0.048,
    Until: 17:31,1.000,
    Until: 20:19,0.000,
    Until: 20:21,1.000,
    Until: 21:06,0.048,
    Until: 21:11,1.000,
    Until: 22:43,0.000,
    Until: 22:45,1.000,
    Until: 23:30,0.048,
    Until: 23:35,1.000,
    Until: 24:00,0.000,
    Through: 5/12,
    For: AllDays,
    Until: 07:51,0.000,
    Until: 07:53,1.000,
    Until: 08:38,0.048,
    Until: 08:43,1.000,
    Until: 10:50,0.000,
    Until: 10:52,1.000,
    Until: 11:37,0.048,
    Until: 11:42,1.000,
    Until: 15:18,0.000,
    Until: 15:20,1.000,
    Until: 16:05,0.048,
    Until: 16:10,1.000,
    Until: 20:48,0.000,
    Until: 20:50,1.000,
    Until: 21:35,0.048,
    Until: 21:40,1.000,
    Until: 22:57,0.000,
    Until: 22:59,1.000,
    Until: 23:44,0.048,
    Until: 23:49,1.000,
    Until: 24:00,0.000,
    Through: 5/13,
    For: AllDays,
    Until: 06:53,0.000,
    Until: 06:55,1.000,
    Until: 07:40,0.048,
    Until: 07:45,1.000,
    Until: 11:39,0.000,
    Until: 11:41,1.000,
    Until: 12:26,0.048,
    Until: 12:31,1.000,
    Until: 13:12,0.000,
    Until: 13:14,1.000,
    Until: 13:59,0.048,
    Until: 14:04,1.000,
    Until: 18:07,0.000,
    Until: 18:09,1.000,
    Until: 18:54,0.048,
    Until: 18:59,1.000,
    Until: 20:45,0.000,
    Until: 20:47,1.000,
    Until: 21:32,0.048,
    Until: 21:37,1.000,
    Until: 21:38,0.000,
    Until: 21:40,1.000,
    Until: 22:25,0.048,
    Until: 22:30,1.000,
    Until: 24:00,0.000,
    Through: 5/14,
    For: AllDays,
    Until: 13:25,0.000,
    Until: 13:27,1.000,
    Until: 14:12,0.048,
    Until: 14:17,1.000,
    Until: 21:48,0.000,
    Until: 21:50,1.000,
    Until: 22:35,0.048,
    Until: 22:40,1.000,
    Until: 22:53,0.000,
    Until: 22:55,1.000,
    Until: 23:40,0.048,
    Until: 23:45,1.000,
    Until: 24:00,0.000,
    Through: 5/15,
    For: AllDays,
    Until: 05:52,0.000,
    Until: 05:54,1.000,
    Until: 06:39,0.048,
    Until: 06:44,1.000,
    Until: 11:28,0.000,
    Until: 11:30,1.000,
    Until: 12:15,0.048,
    Until: 12:20,1.000,
    Until: 12:44,0.000,
    Until: 12:46,1.000,
    Until: 13:31,0.048,
    Until: 13:36,1.000,
    Until: 18:55,0.000,
    Until: 18:57,1.000,
    Until: 19:42,0.048,
    Until: 19:47,1.000,
    Until: 21:22,0.000,
    Until: 21:24,1.000,
    Until: 22:09,0.048,
    Until: 22:14,1.000,
    Until: 23:02,0.000,
    Until: 23:04,1.000,
    Until: 23:49,0.048,
    Until: 23:54,1.000,
    Until: 24:00,0.000,
    Through: 5/16,
    For: AllDays,
    Until: 24:00,0.000,
    Through: 5/17,
    For: AllDays,
    Until: 24:00,0.000,
    Through: 5/18,
    For: AllDays,
    Until: 05:40,0.000,
    Until: 05:42,1.000,
    Until: 06:27,0.048,
    Until: 06:32,1.000,
    Until: 11:44,0.000,
    Until: 11:46,1.000,
    Until: 12:31,0.048,
    Until: 12:36,1.000,
    Until: 18:11,0.000,
    Until: 18:13,1.000,
    Until: 18:58,0.048,
    Until: 19:03,1.000,
    Until: 20:22,0.000,
    Until: 20:24,1.000,
    Until: 21:09,0.048,
    Until: 21:14,1.000,
    Until: 21:16,0.000,
    Until: 21:18,1.000,
    Until: 22:03,0.048,
    Until: 22:08,1.000,
    Until: 24:00,0.000,
    Through: 5/19,
    For: AllDays,
    Until: 07:00,0.000,
    Until: 07:02,1.000,
    Until: 07:47,0.048,
    Until: 07:52,1.000,
    Until: 12:10,0.000,
    Until: 12:12,1.000,
    Until: 12:57,0.048,
    Until: 13:02,1.000,
    Until: 16:25,0.000,
    Until: 16:27,1.000,
    Until: 17:12,0.048,
    Until: 17:17,1.000,
    Until: 17:49,0.000,
    Until: 17:51,1.000,
    Until: 18:36,0.048,
    Until: 18:41,1.000,
    Until: 21:29,0.000,
    Until: 21:31,1.000,
    Until: 22:16,0.048,
    Until: 22:21,1.000,
    Until: 22:53,0.000,
    Until: 22:55,1.000,
    Until: 23:40,0.048,
    Until: 23:45,1.000,
    Until: 24:00,0.000,
    Through: 5/20,
    For: AllDays,
    Until: 06:59,0.000,
    Until: 07:01,1.000,
    Until: 07:46,0.048,
    Until: 07:51,1.000,
    Until: 11:42,0.000,
    Until: 11:44,1.000,
    Until: 12:29,0.048,
    Until: 12:34,1.000,
    Until: 15:17,0.000,
    Until: 15:19,1.000,
    Until: 16:04,0.048,
    Until: 16:09,1.000,
    Until: 19:52,0.000,
    Until: 19:54,1.000,
    Until: 20:39,0.048,
    Until: 20:44,1.000,
    Until: 21:38,0.000,
    Until: 21:40,1.000,
    Until: 22:25,0.048,
    Until: 22:30,1.000,
    Until: 24:00,0.000,
    Through: 5/21,
    For: AllDays,
    Until: 10:35,0.000,
    Until: 10:37,1.000,
    Until: 11:22,0.048,
    Until: 11:27,1.000,
    Until: 11:38,0.000,
    Until: 11:40,1.000,
    Until: 12:25,0.048,
    Until: 12:30,1.000,
    Until: 17:57,0.000,
    Until: 17:59,1.000,
    Until: 18:44,0.048,
    Until: 18:49,1.000,
    Until: 21:50,0.000,
    Until: 21:52,1.000,
    Until: 22:37,0.048,
    Until: 22:42,1.000,
    Until: 22:43,0.000,
    Until: 22:45,1.000,
    Until: 23:30,0.048,
    Until: 23:35,1.000,
    Until: 23:36,0.000,
    Until: 23:38,1.000,
    Until: 24:00,0.048,
    Through: 5/22,
    For: AllDays,
    Until: 00:23,0.048,
    Until: 00:28,1.000,
    Until: 11:29,0.000,
    Until: 11:31,1.000,
    Until: 12:16,0.048,
    Until: 12:21,1.000,
    Until: 12:37,0.000,
    Until: 12:39,1.000,
    Until: 13:24,0.048,
    Until: 13:29,1.000,
    Until: 18:19,0.000,
    Until: 18:21,1.000,
    Until: 19:06,0.048,
    Until: 19:11,1.000,
    Until: 20:12,0.000,
    Until: 20:14,1.000,
    Until: 20:59,0.048,
    Until: 21:04,1.000,
    Until: 22:10,0.000,
    Until: 22:12,1.000,
    Until: 22:57,0.048,
    Until: 23:02,1.000,
    Until: 24:00,0.000,
    Through: 5/23,
    For: AllDays,
    Until: 24:00,0.000,
    Through: 5/24,
    For: AllDays,
    Until: 24:00,0.000,
    Through: 5/25,
    For: AllDays,
    Until: 11:35,0.000,
    Until: 11:37,1.000,
    Until: 12:22,0.048,
    Until: 12:27,1.000,
    Until: 17:19,0.000,
    Until: 17:21,1.000,
    Until: 18:06,0.048,
    Until: 18:11,1.000,
    Until: 21:02,0.000,
    Until: 21:04,1.000,
    Until: 21:49,0.048,
    Until: 21:54,1.000,
    Until: 21:55,0.000,
    Until: 21:57,1.000,
    Until: 22:42,0.048,
    Until: 22:47,1.000,
    Until: 24:00,0.000,
    Through: 5/26,
    For: AllDays,
    Until: 06:41,0.000,
    Until: 06:43,1.000,
    Until: 07:28,0.048,
    Until: 07:33,1.000,
    Until: 13:49,0.000,
    Until: 13:51,1.000,
    Until: 14:36,0.048,
    Until: 14:41,1.000,
    Until: 15:40,0.000,
    Until: 15:42,1.000,
    Until: 16:27,0.048,
    Until: 16:32,1.000,
    Until: 17:56,0.000,
    Until: 17:58,1.000,
    Until: 18:43,0.048,
    Until: 18:48,1.000,
    Until: 21:15,0.000,
    Until: 21:17,1.000,
    Until: 22:02,0.048,
    Until: 22:07,1.000,
    Until: 22:12,0.000,
    Until: 22:14,1.000,
    Until: 22:59,0.048,
    Until: 23:04,1.000,
    Until: 24:00,0.000,
    Through: 5/27,
    For: AllDays,
    Until: 12:15,0.000,
    Until: 12:17,1.000,
    Until: 13:02,0.048,
    Until: 13:07,1.000,
    Until: 16:42,0.000,
    Until: 16:44,1.000,
    Until: 17:29,0.048,
    Until: 17:34,1.000,
    Until: 18:12,0.000,
    Until: 18:14,1.000,
    Until: 18:59,0.048,
    Until: 19:04,1.000,
    Until: 20:19,0.000,
    Until: 20:21,1.000,
    Until: 21:06,0.048,
    Until: 21:11,1.000,
    Until: 21:37,0.000,
    Until: 21:39,1.000,
    Until: 22:24,0.048,
    Until: 22:29,1.000,
    Until: 24:00,0.000,
    Through: 5/28,
    For: AllDays,
    Until: 10:51,0.000,
    Until: 10:53,1.000,
    Until: 11:38,0.048,
    Until: 11:43,1.000,
    Until: 11:44,0.000,
    Until: 11:46,1.000,
    Until: 12:31,0.048,
    Until: 12:36,1.000,
    Until: 16:19,0.000,
    Until: 16:21,1.000,
    Until: 17:06,0.048,
    Until: 17:11,1.000,
    Until: 20:37,0.000,
    Until: 20:39,1.000,
    Until: 21:24,0.048,
    Until: 21:29,1.000,
    Until: 22:04,0.000,
    Until: 22:06,1.000,
    Until: 22:51,0.048,
    Until: 22:56,1.000,
    Until: 24:00,0.000,
    Through: 5/29,
    For: AllDays,
    Until: 14:05,0.000,
    Until: 14:07,1.000,
    Until: 14:52,0.048,
    Until: 14:57,1.000,
    Until: 15:06,0.000,
    Until: 15:08,1.000,
    Until: 15:53,0.048,
    Until: 15:58,1.000,
    Until: 18:10,0.000,
    Until: 18:12,1.000,
    Until: 18:57,0.048,
    Until: 19:02,1.000,
    Until: 20:02,0.000,
    Until: 20:04,1.000,
    Until: 20:49,0.048,
    Until: 20:54,1.000,
    Until: 21:44,0.000,
    Until: 21:46,1.000,
    Until: 22:31,0.048,
    Until: 22:36,1.000,
    Until: 24:00,0.000,
    Through: 5/30,
    For: AllDays,
    Until: 24:00,0.000,
    Through: 5/31,
    For: AllDays,
    Until: 24:00,0.000,
    Through: 6/1,
    For: AllDays,
    Until: 16:44,0.000,
    Until: 16:46,1.000,
    Until: 17:31,0.048,
    Until: 17:36,1.000,
    Until: 22:50,0.000,
    Until: 22:52,1.000,
    Until: 23:37,0.048,
    Until: 23:42,1.000,
    Until: 24:00,0.000,
    Through: 6/2,
    For: AllDays,
    Until: 14:00,0.000,
    Until: 14:02,1.000,
    Until: 14:47,0.048,
    Until: 14:52,1.000,
    Until: 15:27,0.000,
    Until: 15:29,1.000,
    Until: 16:14,0.048,
    Until: 16:19,1.000,
    Until: 17:24,0.000,
    Until: 17:26,1.000,
    Until: 18:11,0.048,
    Until: 18:16,1.000,
    Until: 23:01,0.000,
    Until: 23:03,1.000,
    Until: 23:48,0.048,
    Until: 23:53,1.000,
    Until: 24:00,0.000,
    Through: 6/3,
    For: AllDays,
    Until: 13:17,0.000,
    Until: 13:19,1.000,
    Until: 14:04,0.048,
    Until: 14:09,1.000,
    Until: 21:14,0.000,
    Until: 21:16,1.000,
    Until: 22:01,0.048,
    Until: 22:06,1.000,
    Until: 22:42,0.000,
    Until: 22:44,1.000,
    Until: 23:29,0.048,
    Until: 23:34,1.000,
    Until: 24:00,0.000,
    Through: 6/4,
    For: AllDays,
    Until: 12:56,0.000,
    Until: 12:58,1.000,
    Until: 13:43,0.048,
    Until: 13:48,1.000,
    Until: 16:23,0.000,
    Until: 16:25,1.000,
    Until: 17:10,0.048,
    Until: 17:15,1.000,
    Until: 20:47,0.000,
    Until: 20:49,1.000,
    Until: 21:34,0.048,
    Until: 21:39,1.000,
    Until: 21:40,0.000,
    Until: 21:42,1.000,
    Until: 22:27,0.048,
    Until: 22:32,1.000,
    Until: 24:00,0.000,
    Through: 6/5,
    For: AllDays,
    Until: 07:06,0.000,
    Until: 07:08,1.000,
    Until: 07:53,0.048,
    Until: 07:58,1.000,
    Until: 10:30,0.000,
    Until: 10:32,1.000,
    Until: 11:17,0.048,
    Until: 11:22,1.000,
    Until: 12:32,0.000,
    Until: 12:34,1.000,
    Until: 13:19,0.048,
    Until: 13:24,1.000,
    Until: 20:42,0.000,
    Until: 20:44,1.000,
    Until: 21:29,0.048,
    Until: 21:34,1.000,
    Until: 22:09,0.000,
    Until: 22:11,1.000,
    Until: 22:56,0.048,
    Until: 23:01,1.000,
    Until: 24:00,0.000,
    Through: 6/6,
    For: AllDays,
    Until: 24:00,0.000,
    Through: 6/7,
    For: AllDays,
    Until: 24:00,0.000,
    Through: 6/8,
    For: AllDays,
    Until: 11:49,0.000,
    Until: 11:51,1.000,
    Until: 12:36,0.048,
    Until: 12:41,1.000,
    Until: 20:39,0.000,
    Until: 20:41,1.000,
    Until: 21:26,0.048,
    Until: 21:31,1.000,
    Until: 21:41,0.000,
    Until: 21:43,1.000,
    Until: 22:28,0.048,
    Until: 22:33,1.000,
    Until: 24:00,0.000,
    Through: 6/9,
    For: AllDays,
    Until: 07:58,0.000,
    Until: 08:00,1.000,
    Until: 08:45,0.048,
    Until: 08:50,1.000,
    Until: 12:10,0.000,
    Until: 12:12,1.000,
    Until: 12:57,0.048,
    Until: 13:02,1.000,
    Until: 14:04,0.000,
    Until: 14:06,1.000,
    Until: 14:51,0.048,
    Until: 14:56,1.000,
    Until: 17:43,0.000,
    Until: 17:45,1.000,
    Until: 18:30,0.048,
    Until: 18:35,1.000,
    Until: 18:42,0.000,
    Until: 18:44,1.000,
    Until: 19:29,0.048,
    Until: 19:34,1.000,
    Until: 21:39,0.000,
    Until: 21:41,1.000,
    Until: 22:26,0.048,
    Until: 22:31,1.000,
    Until: 22:43,0.000,
    Until: 22:45,1.000,
    Until: 23:30,0.048,
    Until: 23:35,1.000,
    Until: 24:00,0.000,
    Through: 6/10,
    For: AllDays,
    Until: 12:21,0.000,
    Until: 12:23,1.000,
    Until: 13:08,0.048,
    Until: 13:13,1.000,
    Until: 14:01,0.000,
    Until: 14:03,1.000,
    Until: 14:48,0.048,
    Until: 14:53,1.000,
    Until: 21:54,0.000,
    Until: 21:56,1.000,
    Until: 22:41,0.048,
    Until: 22:46,1.000,
    Until: 23:09,0.000,
    Until: 23:11,1.000,
    Until: 23:56,0.048,
    Until: 24:00,1.000,
    Through: 6/11,
    For: AllDays,
    Until: 00:01,1.000,
    Until: 13:07,0.000,
    Until: 13:09,1.000,
    Until: 13:54,0.048,
    Until: 13:59,1.000,
    Until: 22:07,0.000,
    Until: 22:09,1.000,
    Until: 22:54,0.048,
    Until: 22:59,1.000,
    Until: 24:00,0.000,
    Through: 6/12,
    For: AllDays,
    Until: 12:36,0.000,
    Until: 12:38,1.000,
    Until: 13:23,0.048,
    Until: 13:28,1.000,
    Until: 15:22,0.000,
    Until: 15:24,1.000,
    Until: 16:09,0.048,
    Until: 16:14,1.000,
    Until: 20:56,0.000,
    Until: 20:58,1.000,
    Until: 21:43,0.048,
    Until: 21:48,1.000,
    Until: 21:59,0.000,
    Until: 22:01,1.000,
    Until: 22:46,0.048,
    Until: 22:51,1.000,
    Until: 24:00,0.000,
    Through: 6/13,
    For: AllDays,
    Until: 24:00,0.000,
    Through: 6/14,
    For: AllDays,
    Until: 24:00,0.000,
    Through: 6/15,
    For: AllDays,
    Until: 05:31,0.000,
    Until: 05:33,1.000,
    Until: 06:18,0.048,
    Until: 06:23,1.000,
    Until: 07:51,0.000,
    Until: 07:53,1.000,
    Until: 08:38,0.048,
    Until: 08:43,1.000,
    Until: 11:52,0.000,
    Until: 11:54,1.000,
    Until: 12:39,0.048,
    Until: 12:44,1.000,
    Until: 15:33,0.000,
    Until: 15:35,1.000,
    Until: 16:20,0.048,
    Until: 16:25,1.000,
    Until: 16:36,0.000,
    Until: 16:38,1.000,
    Until: 17:23,0.048,
    Until: 17:28,1.000,
    Until: 20:00,0.000,
    Until: 20:02,1.000,
    Until: 20:47,0.048,
    Until: 20:52,1.000,
    Until: 22:11,0.000,
    Until: 22:13,1.000,
    Until: 22:58,0.048,
    Until: 23:03,1.000,
    Until: 24:00,0.000,
    Through: 6/16,
    For: AllDays,
    Until: 11:52,0.000,
    Until: 11:54,1.000,
    Until: 12:39,0.048,
    Until: 12:44,1.000,
    Until: 15:46,0.000,
    Until: 15:48,1.000,
    Until: 16:33,0.048,
    Until: 16:38,1.000,
    Until: 16:54,0.000,
    Until: 16:56,1.000,
    Until: 17:41,0.048,
    Until: 17:46,1.000,
    Until: 21:32,0.000,
    Until: 21:34,1.000,
    Until: 22:19,0.048,
    Until: 22:24,1.000,
    Until: 22:48,0.000,
    Until: 22:50,1.000,
    Until: 23:35,0.048,
    Until: 23:40,1.000,
    Until: 24:00,0.000,
    Through: 6/17,
    For: AllDays,
    Until: 11:37,0.000,
    Until: 11:39,1.000,
    Until: 12:24,0.048,
    Until: 12:29,1.000,
    Until: 12:31,0.000,
    Until: 12:33,1.000,
    Until: 13:18,0.048,
    Until: 13:23,1.000,
    Until: 15:42,0.000,
    Until: 15:44,1.000,
    Until: 16:29,0.048,
    Until: 16:34,1.000,
    Until: 21:10,0.000,
    Until: 21:12,1.000,
    Until: 21:57,0.048,
    Until: 22:02,1.000,
    Until: 22:34,0.000,
    Until: 22:36,1.000,
    Until: 23:21,0.048,
    Until: 23:26,1.000,
    Until: 23:27,0.000,
    Until: 23:29,1.000,
    Until: 24:00,0.048,
    Through: 6/18,
    For: AllDays,
    Until: 00:14,0.048,
    Until: 00:19,1.000,
    Until: 11:54,0.000,
    Until: 11:56,1.000,
    Until: 12:41,0.048,
    Until: 12:46,1.000,
    Until: 14:00,0.000,
    Until: 14:02,1.000,
    Until: 14:47,0.048,
    Until: 14:52,1.000,
    Until: 16:57,0.000,
    Until: 16:59,1.000,
    Until: 17:44,0.048,
    Until: 17:49,1.000,
    Until: 22:19,0.000,
    Until: 22:21,1.000,
    Until: 23:06,0.048,
    Until: 23:11,1.000,
    Until: 24:00,0.000,
    Through: 6/19,
    For: AllDays,
    Until: 12:01,0.000,
    Until: 12:03,1.000,
    Until: 12:48,0.048,
    Until: 12:53,1.000,
    Until: 17:32,0.000,
    Until: 17:34,1.000,
    Until: 18:19,0.048,
    Until: 18:24,1.000,
    Until: 20:20,0.000,
    Until: 20:22,1.000,
    Until: 21:07,0.048,
    Until: 21:12,1.000,
    Until: 23:02,0.000,
    Until: 23:04,1.000,
    Until: 23:49,0.048,
    Until: 23:54,1.000,
    Until: 24:00,0.000,
    Through: 6/20,
    For: AllDays,
    Until: 24:00,0.000,
    Through: 6/21,
    For: AllDays,
    Until: 24:00,0.000,
    Through: 6/22,
    For: AllDays,
    Until: 17:57,0.000,
    Until: 17:59,1.000,
    Until: 18:44,0.048,
    Until: 18:49,1.000,
    Until: 19:53,0.000,
    Until: 19:55,1.000,
    Until: 20:40,0.048,
    Until: 20:45,1.000,
    Until: 21:12,0.000,
    Until: 21:14,1.000,
    Until: 21:59,0.048,
    Until: 22:04,1.000,
    Until: 24:00,0.000,
    Through: 6/23,
    For: AllDays,
    Until: 10:13,0.000,
    Until: 10:15,1.000,
    Until: 11:00,0.048,
    Until: 11:05,1.000,
    Until: 12:12,0.000,
    Until: 12:14,1.000,
    Until: 12:59,0.048,
    Until: 13:04,1.000,
    Until: 15:32,0.000,
    Until: 15:34,1.000,
    Until: 16:19,0.048,
    Until: 16:24,1.000,
    Until: 20:00,0.000,
    Until: 20:02,1.000,
    Until: 20:47,0.048,
    Until: 20:52,1.000,
    Until: 21:18,0.000,
    Until: 21:20,1.000,
    Until: 22:05,0.048,
    Until: 22:10,1.000,
    Until: 22:22,0.000,
    Until: 22:24,1.000,
    Until: 23:09,0.048,
    Until: 23:14,1.000,
    Until: 24:00,0.000,
    Through: 6/24,
    For: AllDays,
    Until: 11:32,0.000,
    Until: 11:34,1.000,
    Until: 12:19,0.048,
    Until: 12:24,1.000,
    Until: 13:14,0.000,
    Until: 13:16,1.000,
    Until: 14:01,0.048,
    Until: 14:06,1.000,
    Until: 21:38,0.000,
    Until: 21:40,1.000,
    Until: 22:25,0.048,
    Until: 22:30,1.000,
    Until: 24:00,0.000,
    Through: 6/25,
    For: AllDays,
    Until: 12:49,0.000,
    Until: 12:51,1.000,
    Until: 13:36,0.048,
    Until: 13:41,1.000,
    Until: 14:46,0.000,
    Until: 14:48,1.000,
    Until: 15:33,0.048,
    Until: 15:38,1.000,
    Until: 22:20,0.000,
    Until: 22:22,1.000,
    Until: 23:07,0.048,
    Until: 23:12,1.000,
    Until: 23:54,0.000,
    Until: 23:56,1.000,
    Until: 24:00,0.048,
    Through: 6/26,
    For: AllDays,
    Until: 00:41,0.048,
    Until: 00:46,1.000,
    Until: 14:04,0.000,
    Until: 14:06,1.000,
    Until: 14:51,0.048,
    Until: 14:56,1.000,
    Until: 16:35,0.000,
    Until: 16:37,1.000,
    Until: 17:22,0.048,
    Until: 17:27,1.000,
    Until: 20:49,0.000,
    Until: 20:51,1.000,
    Until: 21:36,0.048,
    Until: 21:41,1.000,
    Until: 24:00,0.000,
    Through: 6/27,
    For: AllDays,
    Until: 24:00,0.000,
    Through: 6/28,
    For: AllDays,
    Until: 24:00,0.000,
    Through: 6/29,
    For: AllDays,
    Until: 17:48,0.000,
    Until: 17:50,1.000,
    Until: 18:35,0.048,
    Until: 18:40,1.000,
    Until: 22:54,0.000,
    Until: 22:56,1.000,
    Until: 23:41,0.048,
    Until: 23:46,1.000,
    Until: 24:00,0.000,
    Through: 6/30,
    For: AllDays,
    Until: 12:04,0.000,
    Until: 12:06,1.000,
    Until: 12:51,0.048,
    Until: 12:56,1.000,
    Until: 20:24,0.000,
    Until: 20:26,1.000,
    Until: 21:11,0.048,
    Until: 21:16,1.000,
    Until: 22:23,0.000,
    Until: 22:25,1.000,
    Until: 23:10,0.048,
    Until: 23:15,1.000,
    Until: 23:26,0.000,
    Until: 23:28,1.000,
    Until: 24:00,0.048,
    Through: 7/1,
    For: AllDays,
    Until: 00:13,0.048,
    Until: 00:18,1.000,
    Until: 13:08,0.000,
    Until: 13:10,1.000,
    Until: 13:55,0.048,
    Until: 14:00,1.000,
    Until: 17:37,0.000,
    Until: 17:39,1.000,
    Until: 18:24,0.048,
    Until: 18:29,1.000,
    Until: 21:32,0.000,
    Until: 21:34,1.000,
    Until: 22:19,0.048,
    Until: 22:24,1.000,
    Until: 22:45,0.000,
    Until: 22:47,1.000,
    Until: 23:32,0.048,
    Until: 23:37,1.000,
    Until: 24:00,0.000,
    Through: 7/2,
    For: AllDays,
    Until: 12:49,0.000,
    Until: 12:51,1.000,
    Until: 13:36,0.048,
    Until: 13:41,1.000,
    Until: 13:52,0.000,
    Until: 13:54,1.000,
    Until: 14:39,0.048,
    Until: 14:44,1.000,
    Until: 18:02,0.000,
    Until: 18:04,1.000,
    Until: 18:49,0.048,
    Until: 18:54,1.000,
    Until: 19:23,0.000,
    Until: 19:25,1.000,
    Until: 20:10,0.048,
    Until: 20:15,1.000,
    Until: 21:42,0.000,
    Until: 21:44,1.000,
    Until: 22:29,0.048,
    Until: 22:34,1.000,
    Until: 22:35,0.000,
    Until: 22:37,1.000,
    Until: 23:22,0.048,
    Until: 23:27,1.000,
    Until: 24:00,0.000,
    Through: 7/3,
    For: AllDays,
    Until: 18:33,0.000,
    Until: 18:35,1.000,
    Until: 19:20,0.048,
    Until: 19:25,1.000,
    Until: 20:58,0.000,
    Until: 21:00,1.000,
    Until: 21:45,0.048,
    Until: 21:50,1.000,
    Until: 22:18,0.000,
    Until: 22:20,1.000,
    Until: 23:05,0.048,
    Until: 23:10,1.000,
    Until: 24:00,0.000,
    Through: 7/4,
    For: AllDays,
    Until: 24:00,0.000,
    Through: 7/5,
    For: AllDays,
    Until: 24:00,0.000,
    Through: 7/6,
    For: AllDays,
    Until: 12:28,0.000,
    Until: 12:30,1.000,
    Until: 13:15,0.048,
    Until: 13:20,1.000,
    Until: 13:41,0.000,
    Until: 13:43,1.000,
    Until: 14:28,0.048,
    Until: 14:33,1.000,
    Until: 21:00,0.000,
    Until: 21:02,1.000,
    Until: 21:47,0.048,
    Until: 21:52,1.000,
    Until: 22:40,0.000,
    Until: 22:42,1.000,
    Until: 23:27,0.048,
    Until: 23:32,1.000,
    Until: 23:47,0.000,
    Until: 23:49,1.000,
    Until: 24:00,0.048,
    Through: 7/7,
    For: AllDays,
    Until: 00:34,0.048,
    Until: 00:39,1.000,
    Until: 08:17,0.000,
    Until: 08:19,1.000,
    Until: 09:04,0.048,
    Until: 09:09,1.000,
    Until: 11:42,0.000,
    Until: 11:44,1.000,
    Until: 12:29,0.048,
    Until: 12:34,1.000,
    Until: 17:28,0.000,
    Until: 17:30,1.000,
    Until: 18:15,0.048,
    Until: 18:20,1.000,
    Until: 22:00,0.000,
    Until: 22:02,1.000,
    Until: 22:47,0.048,
    Until: 22:52,1.000,
    Until: 22:53,0.000,
    Until: 22:55,1.000,
    Until: 23:40,0.048,
    Until: 23:45,1.000,
    Until: 24:00,0.000,
    Through: 7/8,
    For: AllDays,
    Until: 07:11,0.000,
    Until: 07:13,1.000,
    Until: 07:58,0.048,
    Until: 08:03,1.000,
    Until: 11:24,0.000,
    Until: 11:26,1.000,
    Until: 12:11,0.048,
    Until: 12:16,1.000,
    Until: 15:40,0.000,
    Until: 15:42,1.000,
    Until: 16:27,0.048,
    Until: 16:32,1.000,
    Until: 21:09,0.000,
    Until: 21:11,1.000,
    Until: 21:56,0.048,
    Until: 22:01,1.000,
    Until: 22:02,0.000,
    Until: 22:04,1.000,
    Until: 22:49,0.048,
    Until: 22:54,1.000,
    Until: 24:00,0.000,
    Through: 7/9,
    For: AllDays,
    Until: 11:00,0.000,
    Until: 11:02,1.000,
    Until: 11:47,0.048,
    Until: 11:52,1.000,
    Until: 12:35,0.000,
    Until: 12:37,1.000,
    Until: 13:22,0.048,
    Until: 13:27,1.000,
    Until: 19:24,0.000,
    Until: 19:26,1.000,
    Until: 20:11,0.048,
    Until: 20:16,1.000,
    Until: 21:25,0.000,
    Until: 21:27,1.000,
    Until: 22:12,0.048,
    Until: 22:17,1.000,
    Until: 22:36,0.000,
    Until: 22:38,1.000,
    Until: 23:23,0.048,
    Until: 23:28,1.000,
    Until: 24:00,0.000,
    Through: 7/10,
    For: AllDays,
    Until: 11:19,0.000,
    Until: 11:21,1.000,
    Until: 12:06,0.048,
    Until: 12:11,1.000,
    Until: 13:35,0.000,
    Until: 13:37,1.000,
    Until: 14:22,0.048,
    Until: 14:27,1.000,
    Until: 17:25,0.000,
    Until: 17:27,1.000,
    Until: 18:12,0.048,
    Until: 18:17,1.000,
    Until: 19:05,0.000,
    Until: 19:07,1.000,
    Until: 19:52,0.048,
    Until: 19:57,1.000,
    Until: 21:31,0.000,
    Until: 21:33,1.000,
    Until: 22:18,0.048,
    Until: 22:23,1.000,
    Until: 22:49,0.000,
    Until: 22:51,1.000,
    Until: 23:36,0.048,
    Until: 23:41,1.000,
    Until: 24:00,0.000,
    Through: 7/11,
    For: AllDays,
    Until: 24:00,0.000,
    Through: 7/12,
    For: AllDays,
    Until: 24:00,0.000,
    Through: 7/13,
    For: AllDays,
    Until: 12:42,0.000,
    Until: 12:44,1.000,
    Until: 13:29,0.048,
    Until: 13:34,1.000,
    Until: 15:45,0.000,
    Until: 15:47,1.000,
    Until: 16:32,0.048,
    Until: 16:37,1.000,
    Until: 20:46,0.000,
    Until: 20:48,1.000,
    Until: 21:33,0.048,
    Until: 21:38,1.000,
    Until: 21:39,0.000,
    Until: 21:41,1.000,
    Until: 22:26,0.048,
    Until: 22:31,1.000,
    Until: 24:00,0.000,
    Through: 7/14,
    For: AllDays,
    Until: 06:15,0.000,
    Until: 06:17,1.000,
    Until: 07:02,0.048,
    Until: 07:07,1.000,
    Until: 12:27,0.000,
    Until: 12:29,1.000,
    Until: 13:14,0.048,
    Until: 13:19,1.000,
    Until: 16:57,0.000,
    Until: 16:59,1.000,
    Until: 17:44,0.048,
    Until: 17:49,1.000,
    Until: 20:53,0.000,
    Until: 20:55,1.000,
    Until: 21:40,0.048,
    Until: 21:45,1.000,
    Until: 22:28,0.000,
    Until: 22:30,1.000,
    Until: 23:15,0.048,
    Until: 23:20,1.000,
    Until: 24:00,0.000,
    Through: 7/15,
    For: AllDays,
    Until: 07:35,0.000,
    Until: 07:37,1.000,
    Until: 08:22,0.048,
    Until: 08:27,1.000,
    Until: 11:49,0.000,
    Until: 11:51,1.000,
    Until: 12:36,0.048,
    Until: 12:41,1.000,
    Until: 20:04,0.000,
    Until: 20:06,1.000,
    Until: 20:51,0.048,
    Until: 20:56,1.000,
    Until: 21:07,0.000,
    Until: 21:09,1.000,
    Until: 21:54,0.048,
    Until: 21:59,1.000,
    Until: 22:54,0.000,
    Until: 22:56,1.000,
    Until: 23:41,0.048,
    Until: 23:46,1.000,
    Until: 24:00,0.000,
    Through: 7/16,
    For: AllDays,
    Until: 06:57,0.000,
    Until: 06:59,1.000,
    Until: 07:44,0.048,
    Until: 07:49,1.000,
    Until: 13:17,0.000,
    Until: 13:19,1.000,
    Until: 14:04,0.048,
    Until: 14:09,1.000,
    Until: 16:49,0.000,
    Until: 16:51,1.000,
    Until: 17:36,0.048,
    Until: 17:41,1.000,
    Until: 20:47,0.000,
    Until: 20:49,1.000,
    Until: 21:34,0.048,
    Until: 21:39,1.000,
    Until: 22:21,0.000,
    Until: 22:23,1.000,
    Until: 23:08,0.048,
    Until: 23:13,1.000,
    Until: 24:00,0.000,
    Through: 7/17,
    For: AllDays,
    Until: 07:16,0.000,
    Until: 07:18,1.000,
    Until: 08:03,0.048,
    Until: 08:08,1.000,
    Until: 10:52,0.000,
    Until: 10:54,1.000,
    Until: 11:39,0.048,
    Until: 11:44,1.000,
    Until: 12:08,0.000,
    Until: 12:10,1.000,
    Until: 12:55,0.048,
    Until: 13:00,1.000,
    Until: 19:01,0.000,
    Until: 19:03,1.000,
    Until: 19:48,0.048,
    Until: 19:53,1.000,
    Until: 20:32,0.000,
    Until: 20:34,1.000,
    Until: 21:19,0.048,
    Until: 21:24,1.000,
    Until: 21:50,0.000,
    Until: 21:52,1.000,
    Until: 22:37,0.048,
    Until: 22:42,1.000,
    Until: 24:00,0.000,
    Through: 7/18,
    For: AllDays,
    Until: 24:00,0.000,
    Through: 7/19,
    For: AllDays,
    Until: 24:00,0.000,
    Through: 7/20,
    For: AllDays,
    Until: 06:33,0.000,
    Until: 06:35,1.000,
    Until: 07:20,0.048,
    Until: 07:25,1.000,
    Until: 07:42,0.000,
    Until: 07:44,1.000,
    Until: 08:29,0.048,
    Until: 08:34,1.000,
    Until: 10:43,0.000,
    Until: 10:45,1.000,
    Until: 11:30,0.048,
    Until: 11:35,1.000,
    Until: 12:30,0.000,
    Until: 12:32,1.000,
    Until: 13:17,0.048,
    Until: 13:22,1.000,
    Until: 16:04,0.000,
    Until: 16:06,1.000,
    Until: 16:51,0.048,
    Until: 16:56,1.000,
    Until: 22:53,0.000,
    Until: 22:55,1.000,
    Until: 23:40,0.048,
    Until: 23:45,1.000,
    Until: 24:00,0.000,
    Through: 7/21,
    For: AllDays,
    Until: 08:00,0.000,
    Until: 08:02,1.000,
    Until: 08:47,0.048,
    Until: 08:52,1.000,
    Until: 10:52,0.000,
    Until: 10:54,1.000,
    Until: 11:39,0.048,
    Until: 11:44,1.000,
    Until: 14:44,0.000,
    Until: 14:46,1.000,
    Until: 15:31,0.048,
    Until: 15:36,1.000,
    Until: 18:41,0.000,
    Until: 18:43,1.000,
    Until: 19:28,0.048,
    Until: 19:33,1.000,
    Until: 19:37,0.000,
    Until: 19:39,1.000,
    Until: 20:24,0.048,
    Until: 20:29,1.000,
    Until: 21:47,0.000,
    Until: 21:49,1.000,
    Until: 22:34,0.048,
    Until: 22:39,1.000,
    Until: 22:58,0.000,
    Until: 23:00,1.000,
    Until: 23:45,0.048,
    Until: 23:50,1.000,
    Until: 24:00,0.000,
    Through: 7/22,
    For: AllDays,
    Until: 07:49,0.000,
    Until: 07:51,1.000,
    Until: 08:36,0.048,
    Until: 08:41,1.000,
    Until: 13:56,0.000,
    Until: 13:58,1.000,
    Until: 14:43,0.048,
    Until: 14:48,1.000,
    Until: 16:06,0.000,
    Until: 16:08,1.000,
    Until: 16:53,0.048,
    Until: 16:58,1.000,
    Until: 18:31,0.000,
    Until: 18:33,1.000,
    Until: 19:18,0.048,
    Until: 19:23,1.000,
    Until: 20:50,0.000,
    Until: 20:52,1.000,
    Until: 21:37,0.048,
    Until: 21:42,1.000,
    Until: 22:02,0.000,
    Until: 22:04,1.000,
    Until: 22:49,0.048,
    Until: 22:54,1.000,
    Until: 23:00,0.000,
    Until: 23:02,1.000,
    Until: 23:47,0.048,
    Until: 23:52,1.000,
    Until: 24:00,0.000,
    Through: 7/23,
    For: AllDays,
    Until: 07:26,0.000,
    Until: 07:28,1.000,
    Until: 08:13,0.048,
    Until: 08:18,1.000,
    Until: 12:03,0.000,
    Until: 12:05,1.000,
    Until: 12:50,0.048,
    Until: 12:55,1.000,
    Until: 13:25,0.000,
    Until: 13:27,1.000,
    Until: 14:12,0.048,
    Until: 14:17,1.000,
    Until: 17:29,0.000,
    Until: 17:31,1.000,
    Until: 18:16,0.048,
    Until: 18:21,1.000,
    Until: 19:48,0.000,
    Until: 19:50,1.000,
    Until: 20:35,0.048,
    Until: 20:40,1.000,
    Until: 21:11,0.000,
    Until: 21:13,1.000,
    Until: 21:58,0.048,
    Until: 22:03,1.000,
    Until: 22:40,0.000,
    Until: 22:42,1.000,
    Until: 23:27,0.048,
    Until: 23:32,1.000,
    Until: 24:00,0.000,
    Through: 7/24,
    For: AllDays,
    Until: 11:17,0.000,
    Until: 11:19,1.000,
    Until: 12:04,0.048,
    Until: 12:09,1.000,
    Until: 16:57,0.000,
    Until: 16:59,1.000,
    Until: 17:44,0.048,
    Until: 17:49,1.000,
    Until: 20:41,0.000,
    Until: 20:43,1.000,
    Until: 21:28,0.048,
    Until: 21:33,1.000,
    Until: 21:34,0.000,
    Until: 21:36,1.000,
    Until: 22:21,0.048,
    Until: 22:26,1.000,
    Until: 22:34,0.000,
    Until: 22:36,1.000,
    Until: 23:21,0.048,
    Until: 23:26,1.000,
    Until: 24:00,0.000,
    Through: 7/25,
    For: AllDays,
    Until: 24:00,0.000,
    Through: 7/26,
    For: AllDays,
    Until: 24:00,0.000,
    Through: 7/27,
    For: AllDays,
    Until: 06:57,0.000,
    Until: 06:59,1.000,
    Until: 07:44,0.048,
    Until: 07:49,1.000,
    Until: 11:22,0.000,
    Until: 11:24,1.000,
    Until: 12:09,0.048,
    Until: 12:14,1.000,
    Until: 12:42,0.000,
    Until: 12:44,1.000,
    Until: 13:29,0.048,
    Until: 13:34,1.000,
    Until: 15:21,0.000,
    Until: 15:23,1.000,
    Until: 16:08,0.048,
    Until: 16:13,1.000,
    Until: 19:34,0.000,
    Until: 19:36,1.000,
    Until: 20:21,0.048,
    Until: 20:26,1.000,
    Until: 21:03,0.000,
    Until: 21:05,1.000,
    Until: 21:50,0.048,
    Until: 21:55,1.000,
    Until: 22:17,0.000,
    Until: 22:19,1.000,
    Until: 23:04,0.048,
    Until: 23:09,1.000,
    Until: 24:00,0.000,
    Through: 7/28,
    For: AllDays,
    Until: 07:21,0.000,
    Until: 07:23,1.000,
    Until: 08:08,0.048,
    Until: 08:13,1.000,
    Until: 12:43,0.000,
    Until: 12:45,1.000,
    Until: 13:30,0.048,
    Until: 13:35,1.000,
    Until: 13:46,0.000,
    Until: 13:48,1.000,
    Until: 14:33,0.048,
    Until: 14:38,1.000,
    Until: 17:06,0.000,
    Until: 17:08,1.000,
    Until: 17:53,0.048,
    Until: 17:58,1.000,
    Until: 20:28,0.000,
    Until: 20:30,1.000,
    Until: 21:15,0.048,
    Until: 21:20,1.000,
    Until: 23:11,0.000,
    Until: 23:13,1.000,
    Until: 23:58,0.048,
    Until: 24:00,1.000,
    Through: 7/29,
    For: AllDays,
    Until: 00:03,1.000,
    Until: 10:29,0.000,
    Until: 10:31,1.000,
    Until: 11:16,0.048,
    Until: 11:21,1.000,
    Until: 11:52,0.000,
    Until: 11:54,1.000,
    Until: 12:39,0.048,
    Until: 12:44,1.000,
    Until: 13:04,0.000,
    Until: 13:06,1.000,
    Until: 13:51,0.048,
    Until: 13:56,1.000,
    Until: 17:28,0.000,
    Until: 17:30,1.000,
    Until: 18:15,0.048,
    Until: 18:20,1.000,
    Until: 19:42,0.000,
    Until: 19:44,1.000,
    Until: 20:29,0.048,
    Until: 20:34,1.000,
    Until: 22:13,0.000,
    Until: 22:15,1.000,
    Until: 23:00,0.048,
    Until: 23:05,1.000,
    Until: 23:06,0.000,
    Until: 23:08,1.000,
    Until: 23:53,0.048,
    Until: 23:58,1.000,
    Until: 24:00,0.000,
    Through: 7/30,
    For: AllDays,
    Until: 12:58,0.000,
    Until: 13:00,1.000,
    Until: 13:45,0.048,
    Until: 13:50,1.000,
    Until: 16:28,0.000,
    Until: 16:30,1.000,
    Until: 17:15,0.048,
    Until: 17:20,1.000,
    Until: 17:23,0.000,
    Until: 17:25,1.000,
    Until: 18:10,0.048,
    Until: 18:15,1.000,
    Until: 21:01,0.000,
    Until: 21:03,1.000,
    Until: 21:48,0.048,
    Until: 21:53,1.000,
    Until: 22:32,0.000,
    Until: 22:34,1.000,
    Until: 23:19,0.048,
    Until: 23:24,1.000,
    Until: 23:25,0.000,
    Until: 23:27,1.000,
    Until: 24:00,0.048,
    Through: 7/31,
    For: AllDays,
    Until: 00:12,0.048,
    Until: 00:17,1.000,
    Until: 11:03,0.000,
    Until: 11:05,1.000,
    Until: 11:50,0.048,
    Until: 11:55,1.000,
    Until: 12:32,0.000,
    Until: 12:34,1.000,
    Until: 13:19,0.048,
    Until: 13:24,1.000,
    Until: 19:55,0.000,
    Until: 19:57,1.000,
    Until: 20:42,0.048,
    Until: 20:47,1.000,
    Until: 20:48,0.000,
    Until: 20:50,1.000,
    Until: 21:35,0.048,
    Until: 21:40,1.000,
    Until: 24:00,0.000,
    Through: 8/1,
    For: AllDays,
    Until: 24:00,0.000,
    Through: 8/2,
    For: AllDays,
    Until: 24:00,0.000,
    Through: 8/3,
    For: AllDays,
    Until: 18:49,0.000,
    Until: 18:51,1.000,
    Until: 19:36,0.048,
    Until: 19:41,1.000,
    Until: 20:02,0.000,
    Until: 20:04,1.000,
    Until: 20:49,0.048,
    Until: 20:54,1.000,
    Until: 22:34,0.000,
    Until: 22:36,1.000,
    Until: 23:21,0.048,
    Until: 23:26,1.000,
    Until: 24:00,0.000,
    Through: 8/4,
    For: AllDays,
    Until: 12:02,0.000,
    Until: 12:04,1.000,
    Until: 12:49,0.048,
    Until: 12:54,1.000,
    Until: 18:33,0.000,
    Until: 18:35,1.000,
    Until: 19:20,0.048,
    Until: 19:25,1.000,
    Until: 19:37,0.000,
    Until: 19:39,1.000,
    Until: 20:24,0.048,
    Until: 20:29,1.000,
    Until: 20:30,0.000,
    Until: 20:32,1.000,
    Until: 21:17,0.048,
    Until: 21:22,1.000,
    Until: 24:00,0.000,
    Through: 8/5,
    For: AllDays,
    Until: 12:34,0.000,
    Until: 12:36,1.000,
    Until: 13:21,0.048,
    Until: 13:26,1.000,
    Until: 13:30,0.000,
    Until: 13:32,1.000,
    Until: 14:17,0.048,
    Until: 14:22,1.000,
    Until: 15:31,0.000,
    Until: 15:33,1.000,
    Until: 16:18,0.048,
    Until: 16:23,1.000,
    Until: 21:37,0.000,
    Until: 21:39,1.000,
    Until: 22:24,0.048,
    Until: 22:29,1.000,
    Until: 23:30,0.000,
    Until: 23:32,1.000,
    Until: 24:00,0.048,
    Through: 8/6,
    For: AllDays,
    Until: 00:17,0.048,
    Until: 00:22,1.000,
    Until: 05:40,0.000,
    Until: 05:42,1.000,
    Until: 06:27,0.048,
    Until: 06:32,1.000,
    Until: 11:31,0.000,
    Until: 11:33,1.000,
    Until: 12:18,0.048,
    Until: 12:23,1.000,
    Until: 12:48,0.000,
    Until: 12:50,1.000,
    Until: 13:35,0.048,
    Until: 13:40,1.000,
    Until: 14:53,0.000,
    Until: 14:55,1.000,
    Until: 15:40,0.048,
    Until: 15:45,1.000,
    Until: 17:10,0.000,
    Until: 17:12,1.000,
    Until: 17:57,0.048,
    Until: 18:02,1.000,
    Until: 21:08,0.000,
    Until: 21:10,1.000,
    Until: 21:55,0.048,
    Until: 22:00,1.000,
    Until: 22:32,0.000,
    Until: 22:34,1.000,
    Until: 23:19,0.048,
    Until: 23:24,1.000,
    Until: 24:00,0.000,
    Through: 8/7,
    For: AllDays,
    Until: 06:52,0.000,
    Until: 06:54,1.000,
    Until: 07:39,0.048,
    Until: 07:44,1.000,
    Until: 13:52,0.000,
    Until: 13:54,1.000,
    Until: 14:39,0.048,
    Until: 14:44,1.000,
    Until: 16:56,0.000,
    Until: 16:58,1.000,
    Until: 17:43,0.048,
    Until: 17:48,1.000,
    Until: 19:57,0.000,
    Until: 19:59,1.000,
    Until: 20:44,0.048,
    Until: 20:49,1.000,
    Until: 21:17,0.000,
    Until: 21:19,1.000,
    Until: 22:04,0.048,
    Until: 22:09,1.000,
    Until: 24:00,0.000,
    Through: 8/8,
    For: AllDays,
    Until: 24:00,0.000,
    Through: 8/9,
    For: AllDays,
    Until: 24:00,0.000,
    Through: 8/10,
    For: AllDays,
    Until: 13:13,0.000,
    Until: 13:15,1.000,
    Until: 14:00,0.048,
    Until: 14:05,1.000,
    Until: 17:18,0.000,
    Until: 17:20,1.000,
    Until: 18:05,0.048,
    Until: 18:10,1.000,
    Until: 19:43,0.000,
    Until: 19:45,1.000,
    Until: 20:30,0.048,
    Until: 20:35,1.000,
    Until: 22:34,0.000,
    Until: 22:36,1.000,
    Until: 23:21,0.048,
    Until: 23:26,1.000,
    Until: 24:00,0.000,
    Through: 8/11,
    For: AllDays,
    Until: 05:56,0.000,
    Until: 05:58,1.000,
    Until: 06:43,0.048,
    Until: 06:48,1.000,
    Until: 12:49,0.000,
    Until: 12:51,1.000,
    Until: 13:36,0.048,
    Until: 13:41,1.000,
    Until: 20:33,0.000,
    Until: 20:35,1.000,
    Until: 21:20,0.048,
    Until: 21:25,1.000,
    Until: 21:43,0.000,
    Until: 21:45,1.000,
    Until: 22:30,0.048,
    Until: 22:35,1.000,
    Until: 24:00,0.000,
    Through: 8/12,
    For: AllDays,
    Until: 10:25,0.000,
    Until: 10:27,1.000,
    Until: 11:12,0.048,
    Until: 11:17,1.000,
    Until: 11:23,0.000,
    Until: 11:25,1.000,
    Until: 12:10,0.048,
    Until: 12:15,1.000,
    Until: 17:23,0.000,
    Until: 17:25,1.000,
    Until: 18:10,0.048,
    Until: 18:15,1.000,
    Until: 20:32,0.000,
    Until: 20:34,1.000,
    Until: 21:19,0.048,
    Until: 21:24,1.000,
    Until: 24:00,0.000,
    Through: 8/13,
    For: AllDays,
    Until: 10:32,0.000,
    Until: 10:34,1.000,
    Until: 11:19,0.048,
    Until: 11:24,1.000,
    Until: 13:24,0.000,
    Until: 13:26,1.000,
    Until: 14:11,0.048,
    Until: 14:16,1.000,
    Until: 15:38,0.000,
    Until: 15:40,1.000,
    Until: 16:25,0.048,
    Until: 16:30,1.000,
    Until: 18:21,0.000,
    Until: 18:23,1.000,
    Until: 19:08,0.048,
    Until: 19:13,1.000,
    Until: 21:35,0.000,
    Until: 21:37,1.000,
    Until: 22:22,0.048,
    Until: 22:27,1.000,
    Until: 24:00,0.000,
    Through: 8/14,
    For: AllDays,
    Until: 05:45,0.000,
    Until: 05:47,1.000,
    Until: 06:32,0.048,
    Until: 06:37,1.000,
    Until: 13:58,0.000,
    Until: 14:00,1.000,
    Until: 14:45,0.048,
    Until: 14:50,1.000,
    Until: 16:47,0.000,
    Until: 16:49,1.000,
    Until: 17:34,0.048,
    Until: 17:39,1.000,
    Until: 22:55,0.000,
    Until: 22:57,1.000,
    Until: 23:42,0.048,
    Until: 23:47,1.000,
    Until: 24:00,0.000,
    Through: 8/15,
    For: AllDays,
    Until: 24:00,0.000,
    Through: 8/16,
    For: AllDays,
    Until: 24:00,0.000,
    Through: 8/17,
    For: AllDays,
    Until: 05:42,0.000,
    Until: 05:44,1.000,
    Until: 06:29,0.048,
    Until: 06:34,1.000,
    Until: 11:15,0.000,
    Until: 11:17,1.000,
    Until: 12:02,0.048,
    Until: 12:07,1.000,
    Until: 13:14,0.000,
    Until: 13:16,1.000,
    Until: 14:01,0.048,
    Until: 14:06,1.000,
    Until: 16:45,0.000,
    Until: 16:47,1.000,
    Until: 17:32,0.048,
    Until: 17:37,1.000,
    Until: 21:16,0.000,
    Until: 21:18,1.000,
    Until: 22:03,0.048,
    Until: 22:08,1.000,
    Until: 22:09,0.000,
    Until: 22:11,1.000,
    Until: 22:56,0.048,
    Until: 23:01,1.000,
    Until: 24:00,0.000,
    Through: 8/18,
    For: AllDays,
    Until: 13:32,0.000,
    Until: 13:34,1.000,
    Until: 14:19,0.048,
    Until: 14:24,1.000,
    Until: 21:26,0.000,
    Until: 21:28,1.000,
    Until: 22:13,0.048,
    Until: 22:18,1.000,
    Until: 24:00,0.000,
    Through: 8/19,
    For: AllDays,
    Until: 17:21,0.000,
    Until: 17:23,1.000,
    Until: 18:08,0.048,
    Until: 18:13,1.000,
    Until: 21:40,0.000,
    Until: 21:42,1.000,
    Until: 22:27,0.048,
    Until: 22:32,1.000,
    Until: 24:00,0.000,
    Through: 8/20,
    For: AllDays,
    Until: 07:30,0.000,
    Until: 07:32,1.000,
    Until: 08:17,0.048,
    Until: 08:22,1.000,
    Until: 10:31,0.000,
    Until: 10:33,1.000,
    Until: 11:18,0.048,
    Until: 11:23,1.000,
    Until: 17:39,0.000,
    Until: 17:41,1.000,
    Until: 18:26,0.048,
    Until: 18:31,1.000,
    Until: 20:41,0.000,
    Until: 20:43,1.000,
    Until: 21:28,0.048,
    Until: 21:33,1.000,
    Until: 21:57,0.000,
    Until: 21:59,1.000,
    Until: 22:44,0.048,
    Until: 22:49,1.000,
    Until: 24:00,0.000,
    Through: 8/21,
    For: AllDays,
    Until: 13:40,0.000,
    Until: 13:42,1.000,
    Until: 14:27,0.048,
    Until: 14:32,1.000,
    Until: 15:15,0.000,
    Until: 15:17,1.000,
    Until: 16:02,0.048,
    Until: 16:07,1.000,
    Until: 22:17,0.000,
    Until: 22:19,1.000,
    Until: 23:04,0.048,
    Until: 23:09,1.000,
    Until: 24:00,0.000,
    Through: 8/22,
    For: AllDays,
    Until: 24:00,0.000,
    Through: 8/23,
    For: AllDays,
    Until: 24:00,0.000,
    Through: 8/24,
    For: AllDays,
    Until: 16:10,0.000,
    Until: 16:12,1.000,
    Until: 16:57,0.048,
    Until: 17:02,1.000,
    Until: 17:58,0.000,
    Until: 18:00,1.000,
    Until: 18:45,0.048,
    Until: 18:50,1.000,
    Until: 20:44,0.000,
    Until: 20:46,1.000,
    Until: 21:31,0.048,
    Until: 21:36,1.000,
    Until: 21:57,0.000,
    Until: 21:59,1.000,
    Until: 22:44,0.048,
    Until: 22:49,1.000,
    Until: 24:00,0.000,
    Through: 8/25,
    For: AllDays,
    Until: 11:01,0.000,
    Until: 11:03,1.000,
    Until: 11:48,0.048,
    Until: 11:53,1.000,
    Until: 17:52,0.000,
    Until: 17:54,1.000,
    Until: 18:39,0.048,
    Until: 18:44,1.000,
    Until: 21:46,0.000,
    Until: 21:48,1.000,
    Until: 22:33,0.048,
    Until: 22:38,1.000,
    Until: 23:09,0.000,
    Until: 23:11,1.000,
    Until: 23:56,0.048,
    Until: 24:00,1.000,
    Through: 8/26,
    For: AllDays,
    Until: 00:01,1.000,
    Until: 05:28,0.000,
    Until: 05:30,1.000,
    Until: 06:15,0.048,
    Until: 06:20,1.000,
    Until: 11:49,0.000,
    Until: 11:51,1.000,
    Until: 12:36,0.048,
    Until: 12:41,1.000,
    Until: 15:58,0.000,
    Until: 16:00,1.000,
    Until: 16:45,0.048,
    Until: 16:50,1.000,
    Until: 24:00,0.000,
    Through: 8/27,
    For: AllDays,
    Until: 10:44,0.000,
    Until: 10:46,1.000,
    Until: 11:31,0.048,
    Until: 11:36,1.000,
    Until: 21:57,0.000,
    Until: 21:59,1.000,
    Until: 22:44,0.048,
    Until: 22:49,1.000,
    Until: 22:50,0.000,
    Until: 22:52,1.000,
    Until: 23:37,0.048,
    Until: 23:42,1.000,
    Until: 24:00,0.000,
    Through: 8/28,
    For: AllDays,
    Until: 07:04,0.000,
    Until: 07:06,1.000,
    Until: 07:51,0.048,
    Until: 07:56,1.000,
    Until: 12:06,0.000,
    Until: 12:08,1.000,
    Until: 12:53,0.048,
    Until: 12:58,1.000,
    Until: 16:58,0.000,
    Until: 17:00,1.000,
    Until: 17:45,0.048,
    Until: 17:50,1.000,
    Until: 22:27,0.000,
    Until: 22:29,1.000,
    Until: 23:14,0.048,
    Until: 23:19,1.000,
    Until: 24:00,0.000,
    Through: 8/29,
    For: AllDays,
    Until: 24:00,0.000,
    Through: 8/30,
    For: AllDays,
    Until: 24:00,0.000,
    Through: 8/31,
    For: AllDays,
    Until: 13:30,0.000,
    Until: 13:32,1.000,
    Until: 14:17,0.048,
    Until: 14:22,1.000,
    Until: 19:50,0.000,
    Until: 19:52,1.000,
    Until: 20:37,0.048,
    Until: 20:42,1.000,
    Until: 21:32,0.000,
    Until: 21:34,1.000,
    Until: 22:19,0.048,
    Until: 22:24,1.000,
    Until: 24:00,0.000,
    Through: 9/1,
    For: AllDays,
    Until: 16:53,0.000,
    Until: 16:55,1.000,
    Until: 17:40,0.048,
    Until: 17:45,1.000,
    Until: 20:24,0.000,
    Until: 20:26,1.000,
    Until: 21:11,0.048,
    Until: 21:16,1.000,
    Until: 21:35,0.000,
    Until: 21:37,1.000,
    Until: 22:22,0.048,
    Until: 22:27,1.000,
    Until: 24:00,0.000,
    Through: 9/2,
    For: AllDays,
    Until: 09:59,0.000,
    Until: 10:01,1.000,
    Until: 10:46,0.048,
    Until: 10:51,1.000,
    Until: 21:08,0.000,
    Until: 21:10,1.000,
    Until: 21:55,0.048,
    Until: 22:00,1.000,
    Until: 23:20,0.000,
    Until: 23:22,1.000,
    Until: 24:00,0.048,
    Through: 9/3,
    For: AllDays,
    Until: 00:07,0.048,
    Until: 00:12,1.000,
    Until: 13:47,0.000,
    Until: 13:49,1.000,
    Until: 14:34,0.048,
    Until: 14:39,1.000,
    Until: 16:50,0.000,
    Until: 16:52,1.000,
    Until: 17:37,0.048,
    Until: 17:42,1.000,
    Until: 19:25,0.000,
    Until: 19:27,1.000,
    Until: 20:12,0.048,
    Until: 20:17,1.000,
    Until: 23:05,0.000,
    Until: 23:07,1.000,
    Until: 23:52,0.048,
    Until: 23:57,1.000,
    Until: 24:00,0.000,
    Through: 9/4,
    For: AllDays,
    Until: 16:21,0.000,
    Until: 16:23,1.000,
    Until: 17:08,0.048,
    Until: 17:13,1.000,
    Until: 17:45,0.000,
    Until: 17:47,1.000,
    Until: 18:32,0.048,
    Until: 18:37,1.000,
    Until: 19:56,0.000,
    Until: 19:58,1.000,
    Until: 20:43,0.048,
    Until: 20:48,1.000,
    Until: 20:55,0.000,
    Until: 20:57,1.000,
    Until: 21:42,0.048,
    Until: 21:47,1.000,
    Until: 24:00,0.000,
    Through: 9/5,
    For: AllDays,
    Until: 24:00,0.000,
    Through: 9/6,
    For: AllDays,
    Until: 24:00,0.000,
    Through: 9/7,
    For: AllDays,
    Until: 06:44,0.000,
    Until: 06:46,1.000,
    Until: 07:31,0.048,
    Until: 07:36,1.000,
    Until: 08:55,0.000,
    Until: 08:57,1.000,
    Until: 09:42,0.048,
    Until: 09:47,1.000,
    Until: 10:28,0.000,
    Until: 10:30,1.000,
    Until: 11:15,0.048,
    Until: 11:20,1.000,
    Until: 12:11,0.000,
    Until: 12:13,1.000,
    Until: 12:58,0.048,
    Until: 13:03,1.000,
    Until: 15:49,0.000,
    Until: 15:51,1.000,
    Until: 16:36,0.048,
    Until: 16:41,1.000,
    Until: 16:50,0.000,
    Until: 16:52,1.000,
    Until: 17:37,0.048,
    Until: 17:42,1.000,
    Until: 22:04,0.000,
    Until: 22:06,1.000,
    Until: 22:51,0.048,
    Until: 22:56,1.000,
    Until: 22:57,0.000,
    Until: 22:59,1.000,
    Until: 23:44,0.048,
    Until: 23:49,1.000,
    Until: 24:00,0.000,
    Through: 9/8,
    For: AllDays,
    Until: 12:03,0.000,
    Until: 12:05,1.000,
    Until: 12:50,0.048,
    Until: 12:55,1.000,
    Until: 12:56,0.000,
    Until: 12:58,1.000,
    Until: 13:43,0.048,
    Until: 13:48,1.000,
    Until: 15:26,0.000,
    Until: 15:28,1.000,
    Until: 16:13,0.048,
    Until: 16:18,1.000,
    Until: 17:14,0.000,
    Until: 17:16,1.000,
    Until: 18:01,0.048,
    Until: 18:06,1.000,
    Until: 22:08,0.000,
    Until: 22:10,1.000,
    Until: 22:55,0.048,
    Until: 23:00,1.000,
    Until: 23:01,0.000,
    Until: 23:03,1.000,
    Until: 23:48,0.048,
    Until: 23:53,1.000,
    Until: 24:00,0.000,
    Through: 9/9,
    For: AllDays,
    Until: 11:30,0.000,
    Until: 11:32,1.000,
    Until: 12:17,0.048,
    Until: 12:22,1.000,
    Until: 13:43,0.000,
    Until: 13:45,1.000,
    Until: 14:30,0.048,
    Until: 14:35,1.000,
    Until: 17:43,0.000,
    Until: 17:45,1.000,
    Until: 18:30,0.048,
    Until: 18:35,1.000,
    Until: 19:31,0.000,
    Until: 19:33,1.000,
    Until: 20:18,0.048,
    Until: 20:23,1.000,
    Until: 20:47,0.000,
    Until: 20:49,1.000,
    Until: 21:34,0.048,
    Until: 21:39,1.000,
    Until: 21:41,0.000,
    Until: 21:43,1.000,
    Until: 22:28,0.048,
    Until: 22:33,1.000,
    Until: 22:59,0.000,
    Until: 23:01,1.000,
    Until: 23:46,0.048,
    Until: 23:51,1.000,
    Until: 24:00,0.000,
    Through: 9/10,
    For: AllDays,
    Until: 12:03,0.000,
    Until: 12:05,1.000,
    Until: 12:50,0.048,
    Until: 12:55,1.000,
    Until: 20:32,0.000,
    Until: 20:34,1.000,
    Until: 21:19,0.048,
    Until: 21:24,1.000,
    Until: 22:32,0.000,
    Until: 22:34,1.000,
    Until: 23:19,0.048,
    Until: 23:24,1.000,
    Until: 24:00,0.000,
    Through: 9/11,
    For: AllDays,
    Until: 07:02,0.000,
    Until: 07:04,1.000,
    Until: 07:49,0.048,
    Until: 07:54,1.000,
    Until: 19:54,0.000,
    Until: 19:56,1.000,
    Until: 20:41,0.048,
    Until: 20:46,1.000,
    Until: 21:18,0.000,
    Until: 21:20,1.000,
    Until: 22:05,0.048,
    Until: 22:10,1.000,
    Until: 22:11,0.000,
    Until: 22:13,1.000,
    Until: 22:58,0.048,
    Until: 23:03,1.000,
    Until: 23:40,0.000,
    Until: 23:42,1.000,
    Until: 24:00,0.048,
    Through: 9/12,
    For: AllDays,
    Until: 00:27,0.048,
    Until: 00:32,1.000,
    Until: 24:00,0.000,
    Through: 9/13,
    For: AllDays,
    Until: 24:00,0.000,
    Through: 9/14,
    For: AllDays,
    Until: 08:30,0.000,
    Until: 08:32,1.000,
    Until: 09:17,0.048,
    Until: 09:22,1.000,
    Until: 16:07,0.000,
    Until: 16:09,1.000,
    Until: 16:54,0.048,
    Until: 16:59,1.000,
    Until: 24:00,0.000,
    Through: 9/15,
    For: AllDays,
    Until: 11:57,0.000,
    Until: 11:59,1.000,
    Until: 12:44,0.048,
    Until: 12:49,1.000,
    Until: 13:19,0.000,
    Until: 13:21,1.000,
    Until: 14:06,0.048,
    Until: 14:11,1.000,
    Until: 15:29,0.000,
    Until: 15:31,1.000,
    Until: 16:16,0.048,
    Until: 16:21,1.000,
    Until: 16:50,0.000,
    Until: 16:52,1.000,
    Until: 17:37,0.048,
    Until: 17:42,1.000,
    Until: 20:55,0.000,
    Until: 20:57,1.000,
    Until: 21:42,0.048,
    Until: 21:47,1.000,
    Until: 21:48,0.000,
    Until: 21:50,1.000,
    Until: 22:35,0.048,
    Until: 22:40,1.000,
    Until: 24:00,0.000,
    Through: 9/16,
    For: AllDays,
    Until: 17:34,0.000,
    Until: 17:36,1.000,
    Until: 18:21,0.048,
    Until: 18:26,1.000,
    Until: 20:41,0.000,
    Until: 20:43,1.000,
    Until: 21:28,0.048,
    Until: 21:33,1.000,
    Until: 21:50,0.000,
    Until: 21:52,1.000,
    Until: 22:37,0.048,
    Until: 22:42,1.000,
    Until: 24:00,0.000,
    Through: 9/17,
    For: AllDays,
    Until: 10:20,0.000,
    Until: 10:22,1.000,
    Until: 11:07,0.048,
    Until: 11:12,1.000,
    Until: 11:49,0.000,
    Until: 11:51,1.000,
    Until: 12:36,0.048,
    Until: 12:41,1.000,
    Until: 12:55,0.000,
    Until: 12:57,1.000,
    Until: 13:42,0.048,
    Until: 13:47,1.000,
    Until: 15:49,0.000,
    Until: 15:51,1.000,
    Until: 16:36,0.048,
    Until: 16:41,1.000,
    Until: 17:37,0.000,
    Until: 17:39,1.000,
    Until: 18:24,0.048,
    Until: 18:29,1.000,
    Until: 19:47,0.000,
    Until: 19:49,1.000,
    Until: 20:34,0.048,
    Until: 20:39,1.000,
    Until: 22:02,0.000,
    Until: 22:04,1.000,
    Until: 22:49,0.048,
    Until: 22:54,1.000,
    Until: 22:55,0.000,
    Until: 22:57,1.000,
    Until: 23:42,0.048,
    Until: 23:47,1.000,
    Until: 24:00,0.000,
    Through: 9/18,
    For: AllDays,
    Until: 07:28,0.000,
    Until: 07:30,1.000,
    Until: 08:15,0.048,
    Until: 08:20,1.000,
    Until: 11:54,0.000,
    Until: 11:56,1.000,
    Until: 12:41,0.048,
    Until: 12:46,1.000,
    Until: 13:18,0.000,
    Until: 13:20,1.000,
    Until: 14:05,0.048,
    Until: 14:10,1.000,
    Until: 18:22,0.000,
    Until: 18:24,1.000,
    Until: 19:09,0.048,
    Until: 19:14,1.000,
    Until: 21:08,0.000,
    Until: 21:10,1.000,
    Until: 21:55,0.048,
    Until: 22:00,1.000,
    Until: 22:09,0.000,
    Until: 22:11,1.000,
    Until: 22:56,0.048,
    Until: 23:01,1.000,
    Until: 24:00,0.000,
    Through: 9/19,
    For: AllDays,
    Until: 24:00,0.000,
    Through: 9/20,
    For: AllDays,
    Until: 24:00,0.000,
    Through: 9/21,
    For: AllDays,
    Until: 08:42,0.000,
    Until: 08:44,1.000,
    Until: 09:29,0.048,
    Until: 09:34,1.000,
    Until: 11:43,0.000,
    Until: 11:45,1.000,
    Until: 12:30,0.048,
    Until: 12:35,1.000,
    Until: 20:20,0.000,
    Until: 20:22,1.000,
    Until: 21:07,0.048,
    Until: 21:12,1.000,
    Until: 23:11,0.000,
    Until: 23:13,1.000,
    Until: 23:58,0.048,
    Until: 24:00,1.000,
    Through: 9/22,
    For: AllDays,
    Until: 00:03,1.000,
    Until: 11:00,0.000,
    Until: 11:02,1.000,
    Until: 11:47,0.048,
    Until: 11:52,1.000,
    Until: 19:47,0.000,
    Until: 19:49,1.000,
    Until: 20:34,0.048,
    Until: 20:39,1.000,
    Until: 20:40,0.000,
    Until: 20:42,1.000,
    Until: 21:27,0.048,
    Until: 21:32,1.000,
    Until: 21:44,0.000,
    Until: 21:46,1.000,
    Until: 22:31,0.048,
    Until: 22:36,1.000,
    Until: 24:00,0.000,
    Through: 9/23,
    For: AllDays,
    Until: 12:37,0.000,
    Until: 12:39,1.000,
    Until: 13:24,0.048,
    Until: 13:29,1.000,
    Until: 20:51,0.000,
    Until: 20:53,1.000,
    Until: 21:38,0.048,
    Until: 21:43,1.000,
    Until: 21:44,0.000,
    Until: 21:46,1.000,
    Until: 22:31,0.048,
    Until: 22:36,1.000,
    Until: 22:42,0.000,
    Until: 22:44,1.000,
    Until: 23:29,0.048,
    Until: 23:34,1.000,
    Until: 24:00,0.000,
    Through: 9/24,
    For: AllDays,
    Until: 12:37,0.000,
    Until: 12:39,1.000,
    Until: 13:24,0.048,
    Until: 13:29,1.000,
    Until: 14:57,0.000,
    Until: 14:59,1.000,
    Until: 15:44,0.048,
    Until: 15:49,1.000,
    Until: 16:21,0.000,
    Until: 16:23,1.000,
    Until: 17:08,0.048,
    Until: 17:13,1.000,
    Until: 19:23,0.000,
    Until: 19:25,1.000,
    Until: 20:10,0.048,
    Until: 20:15,1.000,
    Until: 20:16,0.000,
    Until: 20:18,1.000,
    Until: 21:03,0.048,
    Until: 21:08,1.000,
    Until: 24:00,0.000,
    Through: 9/25,
    For: AllDays,
    Until: 11:23,0.000,
    Until: 11:25,1.000,
    Until: 12:10,0.048,
    Until: 12:15,1.000,
    Until: 12:56,0.000,
    Until: 12:58,1.000,
    Until: 13:43,0.048,
    Until: 13:48,1.000,
    Until: 17:38,0.000,
    Until: 17:40,1.000,
    Until: 18:25,0.048,
    Until: 18:30,1.000,
    Until: 19:35,0.000,
    Until: 19:37,1.000,
    Until: 20:22,0.048,
    Until: 20:27,1.000,
    Until: 20:48,0.000,
    Until: 20:50,1.000,
    Until: 21:35,0.048,
    Until: 21:40,1.000,
    Until: 22:08,0.000,
    Until: 22:10,1.000,
    Until: 22:55,0.048,
    Until: 23:00,1.000,
    Until: 24:00,0.000,
    Through: 9/26,
    For: AllDays,
    Until: 24:00,0.000,
    Through: 9/27,
    For: AllDays,
    Until: 24:00,0.000,
    Through: 9/28,
    For: AllDays,
    Until: 04:58,0.000,
    Until: 05:00,1.000,
    Until: 05:45,0.048,
    Until: 05:50,1.000,
    Until: 10:09,0.000,
    Until: 10:11,1.000,
    Until: 10:56,0.048,
    Until: 11:01,1.000,
    Until: 12:36,0.000,
    Until: 12:38,1.000,
    Until: 13:23,0.048,
    Until: 13:28,1.000,
    Until: 15:53,0.000,
    Until: 15:55,1.000,
    Until: 16:40,0.048,
    Until: 16:45,1.000,
    Until: 20:38,0.000,
    Until: 20:40,1.000,
    Until: 21:25,0.048,
    Until: 21:30,1.000,
    Until: 21:31,0.000,
    Until: 21:33,1.000,
    Until: 22:18,0.048,
    Until: 22:23,1.000,
    Until: 23:09,0.000,
    Until: 23:11,1.000,
    Until: 23:56,0.048,
    Until: 24:00,1.000,
    Through: 9/29,
    For: AllDays,
    Until: 00:01,1.000,
    Until: 05:57,0.000,
    Until: 05:59,1.000,
    Until: 06:44,0.048,
    Until: 06:49,1.000,
    Until: 12:49,0.000,
    Until: 12:51,1.000,
    Until: 13:36,0.048,
    Until: 13:41,1.000,
    Until: 19:03,0.000,
    Until: 19:05,1.000,
    Until: 19:50,0.048,
    Until: 19:55,1.000,
    Until: 20:00,0.000,
    Until: 20:02,1.000,
    Until: 20:47,0.048,
    Until: 20:52,1.000,
    Until: 21:56,0.000,
    Until: 21:58,1.000,
    Until: 22:43,0.048,
    Until: 22:48,1.000,
    Until: 24:00,0.000,
    Through: 9/30,
    For: AllDays,
    Until: 11:54,0.000,
    Until: 11:56,1.000,
    Until: 12:41,0.048,
    Until: 12:46,1.000,
    Until: 13:02,0.000,
    Until: 13:04,1.000,
    Until: 13:49,0.048,
    Until: 13:54,1.000,
    Until: 15:12,0.000,
    Until: 15:14,1.000,
    Until: 15:59,0.048,
    Until: 16:04,1.000,
    Until: 16:18,0.000,
    Until: 16:20,1.000,
    Until: 17:05,0.048,
    Until: 17:10,1.000,
    Until: 20:11,0.000,
    Until: 20:13,1.000,
    Until: 20:58,0.048,
    Until: 21:03,1.000,
    Until: 21:19,0.000,
    Until: 21:21,1.000,
    Until: 22:06,0.048,
    Until: 22:11,1.000,
    Until: 22:19,0.000,
    Until: 22:21,1.000,
    Until: 23:06,0.048,
    Until: 23:11,1.000,
    Until: 23:24,0.000,
    Until: 23:26,1.000,
    Until: 24:00,0.048,
    Through: 10/1,
    For: AllDays,
    Until: 00:11,0.048,
    Until: 00:16,1.000,
    Until: 06:49,0.000,
    Until: 06:51,1.000,
    Until: 07:36,0.048,
    Until: 07:41,1.000,
    Until: 11:36,0.000,
    Until: 11:38,1.000,
    Until: 12:23,0.048,
    Until: 12:28,1.000,
    Until: 13:39,0.000,
    Until: 13:41,1.000,
    Until: 14:26,0.048,
    Until: 14:31,1.000,
    Until: 22:12,0.000,
    Until: 22:14,1.000,
    Until: 22:59,0.048,
    Until: 23:04,1.000,
    Until: 23:17,0.000,
    Until: 23:19,1.000,
    Until: 24:00,0.048,
    Through: 10/2,
    For: AllDays,
    Until: 00:04,0.048,
    Until: 00:09,1.000,
    Until: 12:22,0.000,
    Until: 12:24,1.000,
    Until: 13:09,0.048,
    Until: 13:14,1.000,
    Until: 13:25,0.000,
    Until: 13:27,1.000,
    Until: 14:12,0.048,
    Until: 14:17,1.000,
    Until: 17:03,0.000,
    Until: 17:05,1.000,
    Until: 17:50,0.048,
    Until: 17:55,1.000,
    Until: 20:01,0.000,
    Until: 20:03,1.000,
    Until: 20:48,0.048,
    Until: 20:53,1.000,
    Until: 21:11,0.000,
    Until: 21:13,1.000,
    Until: 21:58,0.048,
    Until: 22:03,1.000,
    Until: 22:56,0.000,
    Until: 22:58,1.000,
    Until: 23:43,0.048,
    Until: 23:48,1.000,
    Until: 24:00,0.000,
    Through: 10/3,
    For: AllDays,
    Until: 24:00,0.000,
    Through: 10/4,
    For: AllDays,
    Until: 24:00,0.000,
    Through: 10/5,
    For: AllDays,
    Until: 18:49,0.000,
    Until: 18:51,1.000,
    Until: 19:36,0.048,
    Until: 19:41,1.000,
    Until: 20:25,0.000,
    Until: 20:27,1.000,
    Until: 21:12,0.048,
    Until: 21:17,1.000,
    Until: 21:32,0.000,
    Until: 21:34,1.000,
    Until: 22:19,0.048,
    Until: 22:24,1.000,
    Until: 23:25,0.000,
    Until: 23:27,1.000,
    Until: 24:00,0.048,
    Through: 10/6,
    For: AllDays,
    Until: 00:12,0.048,
    Until: 00:17,1.000,
    Until: 06:43,0.000,
    Until: 06:45,1.000,
    Until: 07:30,0.048,
    Until: 07:35,1.000,
    Until: 12:34,0.000,
    Until: 12:36,1.000,
    Until: 13:21,0.048,
    Until: 13:26,1.000,
    Until: 13:27,0.000,
    Until: 13:29,1.000,
    Until: 14:14,0.048,
    Until: 14:19,1.000,
    Until: 15:42,0.000,
    Until: 15:44,1.000,
    Until: 16:29,0.048,
    Until: 16:34,1.000,
    Until: 20:14,0.000,
    Until: 20:16,1.000,
    Until: 21:01,0.048,
    Until: 21:06,1.000,
    Until: 21:12,0.000,
    Until: 21:14,1.000,
    Until: 21:59,0.048,
    Until: 22:04,1.000,
    Until: 23:25,0.000,
    Until: 23:27,1.000,
    Until: 24:00,0.048,
    Through: 10/7,
    For: AllDays,
    Until: 00:12,0.048,
    Until: 00:17,1.000,
    Until: 07:26,0.000,
    Until: 07:28,1.000,
    Until: 08:13,0.048,
    Until: 08:18,1.000,
    Until: 08:21,0.000,
    Until: 08:23,1.000,
    Until: 09:08,0.048,
    Until: 09:13,1.000,
    Until: 15:15,0.000,
    Until: 15:17,1.000,
    Until: 16:02,0.048,
    Until: 16:07,1.000,
    Until: 16:37,0.000,
    Until: 16:39,1.000,
    Until: 17:24,0.048,
    Until: 17:29,1.000,
    Until: 19:32,0.000,
    Until: 19:34,1.000,
    Until: 20:19,0.048,
    Until: 20:24,1.000,
    Until: 21:12,0.000,
    Until: 21:14,1.000,
    Until: 21:59,0.048,
    Until: 22:04,1.000,
    Until: 22:05,0.000,
    Until: 22:07,1.000,
    Until: 22:52,0.048,
    Until: 22:57,1.000,
    Until: 23:07,0.000,
    Until: 23:09,1.000,
    Until: 23:54,0.048,
    Until: 23:59,1.000,
    Until: 24:00,0.000,
    Through: 10/8,
    For: AllDays,
    Until: 10:10,0.000,
    Until: 10:12,1.000,
    Until: 10:57,0.048,
    Until: 11:02,1.000,
    Until: 12:33,0.000,
    Until: 12:35,1.000,
    Until: 13:20,0.048,
    Until: 13:25,1.000,
    Until: 13:56,0.000,
    Until: 13:58,1.000,
    Until: 14:43,0.048,
    Until: 14:48,1.000,
    Until: 20:40,0.000,
    Until: 20:42,1.000,
    Until: 21:27,0.048,
    Until: 21:32,1.000,
    Until: 21:58,0.000,
    Until: 22:00,1.000,
    Until: 22:45,0.048,
    Until: 22:50,1.000,
    Until: 22:55,0.000,
    Until: 22:57,1.000,
    Until: 23:42,0.048,
    Until: 23:47,1.000,
    Until: 24:00,0.000,
    Through: 10/9,
    For: AllDays,
    Until: 08:10,0.000,
    Until: 08:12,1.000,
    Until: 08:57,0.048,
    Until: 09:02,1.000,
    Until: 10:48,0.000,
    Until: 10:50,1.000,
    Until: 11:35,0.048,
    Until: 11:40,1.000,
    Until: 16:04,0.000,
    Until: 16:06,1.000,
    Until: 16:51,0.048,
    Until: 16:56,1.000,
    Until: 21:00,0.000,
    Until: 21:02,1.000,
    Until: 21:47,0.048,
    Until: 21:52,1.000,
    Until: 23:32,0.000,
    Until: 23:34,1.000,
    Until: 24:00,0.048,
    Through: 10/10,
    For: AllDays,
    Until: 00:19,0.048,
    Until: 00:24,1.000,
    Until: 24:00,0.000,
    Through: 10/11,
    For: AllDays,
    Until: 24:00,0.000,
    Through: 10/12,
    For: AllDays,
    Until: 07:44,0.000,
    Until: 07:46,1.000,
    Until: 08:31,0.048,
    Until: 08:36,1.000,
    Until: 12:10,0.000,
    Until: 12:12,1.000,
    Until: 12:57,0.048,
    Until: 13:02,1.000,
    Until: 20:29,0.000,
    Until: 20:31,1.000,
    Until: 21:16,0.048,
    Until: 21:21,1.000,
    Until: 21:22,0.000,
    Until: 21:24,1.000,
    Until: 22:09,0.048,
    Until: 22:14,1.000,
    Until: 22:15,0.000,
    Until: 22:17,1.000,
    Until: 23:02,0.048,
    Until: 23:07,1.000,
    Until: 24:00,0.000,
    Through: 10/13,
    For: AllDays,
    Until: 12:00,0.000,
    Until: 12:02,1.000,
    Until: 12:47,0.048,
    Until: 12:52,1.000,
    Until: 13:14,0.000,
    Until: 13:16,1.000,
    Until: 14:01,0.048,
    Until: 14:06,1.000,
    Until: 16:53,0.000,
    Until: 16:55,1.000,
    Until: 17:40,0.048,
    Until: 17:45,1.000,
    Until: 19:19,0.000,
    Until: 19:21,1.000,
    Until: 20:06,0.048,
    Until: 20:11,1.000,
    Until: 20:27,0.000,
    Until: 20:29,1.000,
    Until: 21:14,0.048,
    Until: 21:19,1.000,
    Until: 21:33,0.000,
    Until: 21:35,1.000,
    Until: 22:20,0.048,
    Until: 22:25,1.000,
    Until: 24:00,0.000,
    Through: 10/14,
    For: AllDays,
    Until: 11:41,0.000,
    Until: 11:43,1.000,
    Until: 12:28,0.048,
    Until: 12:33,1.000,
    Until: 13:02,0.000,
    Until: 13:04,1.000,
    Until: 13:49,0.048,
    Until: 13:54,1.000,
    Until: 15:57,0.000,
    Until: 15:59,1.000,
    Until: 16:44,0.048,
    Until: 16:49,1.000,
    Until: 19:26,0.000,
    Until: 19:28,1.000,
    Until: 20:13,0.048,
    Until: 20:18,1.000,
    Until: 20:34,0.000,
    Until: 20:36,1.000,
    Until: 21:21,0.048,
    Until: 21:26,1.000,
    Until: 22:01,0.000,
    Until: 22:03,1.000,
    Until: 22:48,0.048,
    Until: 22:53,1.000,
    Until: 23:51,0.000,
    Until: 23:53,1.000,
    Until: 24:00,0.048,
    Through: 10/15,
    For: AllDays,
    Until: 00:38,0.048,
    Until: 00:43,1.000,
    Until: 12:14,0.000,
    Until: 12:16,1.000,
    Until: 13:01,0.048,
    Until: 13:06,1.000,
    Until: 16:24,0.000,
    Until: 16:26,1.000,
    Until: 17:11,0.048,
    Until: 17:16,1.000,
    Until: 22:31,0.000,
    Until: 22:33,1.000,
    Until: 23:18,0.048,
    Until: 23:23,1.000,
    Until: 23:24,0.000,
    Until: 23:26,1.000,
    Until: 24:00,0.048,
    Through: 10/16,
    For: AllDays,
    Until: 00:11,0.048,
    Until: 00:16,1.000,
    Until: 07:12,0.000,
    Until: 07:14,1.000,
    Until: 07:59,0.048,
    Until: 08:04,1.000,
    Until: 10:39,0.000,
    Until: 10:41,1.000,
    Until: 11:26,0.048,
    Until: 11:31,1.000,
    Until: 18:07,0.000,
    Until: 18:09,1.000,
    Until: 18:54,0.048,
    Until: 18:59,1.000,
    Until: 21:05,0.000,
    Until: 21:07,1.000,
    Until: 21:52,0.048,
    Until: 21:57,1.000,
    Until: 22:10,0.000,
    Until: 22:12,1.000,
    Until: 22:57,0.048,
    Until: 23:02,1.000,
    Until: 23:33,0.000,
    Until: 23:35,1.000,
    Until: 24:00,0.048,
    Through: 10/17,
    For: AllDays,
    Until: 00:20,0.048,
    Until: 00:25,1.000,
    Until: 24:00,0.000,
    Through: 10/18,
    For: AllDays,
    Until: 24:00,0.000,
    Through: 10/19,
    For: AllDays,
    Until: 15:27,0.000,
    Until: 15:29,1.000,
    Until: 16:14,0.048,
    Until: 16:19,1.000,
    Until: 18:14,0.000,
    Until: 18:16,1.000,
    Until: 19:01,0.048,
    Until: 19:06,1.000,
    Until: 20:56,0.000,
    Until: 20:58,1.000,
    Until: 21:43,0.048,
    Until: 21:48,1.000,
    Until: 22:47,0.000,
    Until: 22:49,1.000,
    Until: 23:34,0.048,
    Until: 23:39,1.000,
    Until: 24:00,0.000,
    Through: 10/20,
    For: AllDays,
    Until: 06:56,0.000,
    Until: 06:58,1.000,
    Until: 07:43,0.048,
    Until: 07:48,1.000,
    Until: 11:42,0.000,
    Until: 11:44,1.000,
    Until: 12:29,0.048,
    Until: 12:34,1.000,
    Until: 13:24,0.000,
    Until: 13:26,1.000,
    Until: 14:11,0.048,
    Until: 14:16,1.000,
    Until: 15:23,0.000,
    Until: 15:25,1.000,
    Until: 16:10,0.048,
    Until: 16:15,1.000,
    Until: 18:25,0.000,
    Until: 18:27,1.000,
    Until: 19:12,0.048,
    Until: 19:17,1.000,
    Until: 20:18,0.000,
    Until: 20:20,1.000,
    Until: 21:05,0.048,
    Until: 21:10,1.000,
    Until: 21:46,0.000,
    Until: 21:48,1.000,
    Until: 22:33,0.048,
    Until: 22:38,1.000,
    Until: 24:00,0.000,
    Through: 10/21,
    For: AllDays,
    Until: 06:15,0.000,
    Until: 06:17,1.000,
    Until: 07:02,0.048,
    Until: 07:07,1.000,
    Until: 11:35,0.000,
    Until: 11:37,1.000,
    Until: 12:22,0.048,
    Until: 12:27,1.000,
    Until: 17:27,0.000,
    Until: 17:29,1.000,
    Until: 18:14,0.048,
    Until: 18:19,1.000,
    Until: 20:58,0.000,
    Until: 21:00,1.000,
    Until: 21:45,0.048,
    Until: 21:50,1.000,
    Until: 22:19,0.000,
    Until: 22:21,1.000,
    Until: 23:06,0.048,
    Until: 23:11,1.000,
    Until: 23:31,0.000,
    Until: 23:33,1.000,
    Until: 24:00,0.048,
    Through: 10/22,
    For: AllDays,
    Until: 00:18,0.048,
    Until: 00:23,1.000,
    Until: 10:44,0.000,
    Until: 10:46,1.000,
    Until: 11:31,0.048,
    Until: 11:36,1.000,
    Until: 21:48,0.000,
    Until: 21:50,1.000,
    Until: 22:35,0.048,
    Until: 22:40,1.000,
    Until: 23:03,0.000,
    Until: 23:05,1.000,
    Until: 23:50,0.048,
    Until: 23:55,1.000,
    Until: 24:00,0.000,
    Through: 10/23,
    For: AllDays,
    Until: 10:42,0.000,
    Until: 10:44,1.000,
    Until: 11:29,0.048,
    Until: 11:34,1.000,
    Until: 11:56,0.000,
    Until: 11:58,1.000,
    Until: 12:43,0.048,
    Until: 12:48,1.000,
    Until: 15:45,0.000,
    Until: 15:47,1.000,
    Until: 16:32,0.048,
    Until: 16:37,1.000,
    Until: 21:02,0.000,
    Until: 21:04,1.000,
    Until: 21:49,0.048,
    Until: 21:54,1.000,
    Until: 21:55,0.000,
    Until: 21:57,1.000,
    Until: 22:42,0.048,
    Until: 22:47,1.000,
    Until: 24:00,0.000,
    Through: 10/24,
    For: AllDays,
    Until: 24:00,0.000,
    Through: 10/25,
    For: AllDays,
    Until: 24:00,0.000,
    Through: 10/26,
    For: AllDays,
    Until: 17:59,0.000,
    Until: 18:01,1.000,
    Until: 18:46,0.048,
    Until: 18:51,1.000,
    Until: 21:45,0.000,
    Until: 21:47,1.000,
    Until: 22:32,0.048,
    Until: 22:37,1.000,
    Until: 22:38,0.000,
    Until: 22:40,1.000,
    Until: 23:25,0.048,
    Until: 23:30,1.000,
    Until: 24:00,0.000,
    Through: 10/27,
    For: AllDays,
    Until: 11:37,0.000,
    Until: 11:39,1.000,
    Until: 12:24,0.048,
    Until: 12:29,1.000,
    Until: 13:07,0.000,
    Until: 13:09,1.000,
    Until: 13:54,0.048,
    Until: 13:59,1.000,
    Until: 15:59,0.000,
    Until: 16:01,1.000,
    Until: 16:46,0.048,
    Until: 16:51,1.000,
    Until: 20:50,0.000,
    Until: 20:52,1.000,
    Until: 21:37,0.048,
    Until: 21:42,1.000,
    Until: 21:43,0.000,
    Until: 21:45,1.000,
    Until: 22:30,0.048,
    Until: 22:35,1.000,
    Until: 24:00,0.000,
    Through: 10/28,
    For: AllDays,
    Until: 07:34,0.000,
    Until: 07:36,1.000,
    Until: 08:21,0.048,
    Until: 08:26,1.000,
    Until: 12:05,0.000,
    Until: 12:07,1.000,
    Until: 12:52,0.048,
    Until: 12:57,1.000,
    Until: 15:52,0.000,
    Until: 15:54,1.000,
    Until: 16:39,0.048,
    Until: 16:44,1.000,
    Until: 22:23,0.000,
    Until: 22:25,1.000,
    Until: 23:10,0.048,
    Until: 23:15,1.000,
    Until: 23:28,0.000,
    Until: 23:30,1.000,
    Until: 24:00,0.048,
    Through: 10/29,
    For: AllDays,
    Until: 00:15,0.048,
    Until: 00:20,1.000,
    Until: 10:55,0.000,
    Until: 10:57,1.000,
    Until: 11:42,0.048,
    Until: 11:47,1.000,
    Until: 11:52,0.000,
    Until: 11:54,1.000,
    Until: 12:39,0.048,
    Until: 12:44,1.000,
    Until: 16:34,0.000,
    Until: 16:36,1.000,
    Until: 17:21,0.048,
    Until: 17:26,1.000,
    Until: 21:58,0.000,
    Until: 22:00,1.000,
    Until: 22:45,0.048,
    Until: 22:50,1.000,
    Until: 24:00,0.000,
    Through: 10/30,
    For: AllDays,
    Until: 05:01,0.000,
    Until: 05:03,1.000,
    Until: 05:48,0.048,
    Until: 05:53,1.000,
    Until: 12:35,0.000,
    Until: 12:37,1.000,
    Until: 13:22,0.048,
    Until: 13:27,1.000,
    Until: 13:38,0.000,
    Until: 13:40,1.000,
    Until: 14:25,0.048,
    Until: 14:30,1.000,
    Until: 16:20,0.000,
    Until: 16:22,1.000,
    Until: 17:07,0.048,
    Until: 17:12,1.000,
    Until: 20:51,0.000,
    Until: 20:53,1.000,
    Until: 21:38,0.048,
    Until: 21:43,1.000,
    Until: 22:28,0.000,
    Until: 22:30,1.000,
    Until: 23:15,0.048,
    Until: 23:20,1.000,
    Until: 24:00,0.000,
    Through: 10/31,
    For: AllDays,
    Until: 24:00,0.000,
    Through: 11/1,
    For: AllDays,
    Until: 24:00,0.000,
    Through: 11/2,
    For: AllDays,
    Until: 06:16,0.000,
    Until: 06:18,1.000,
    Until: 07:03,0.048,
    Until: 07:08,1.000,
    Until: 10:06,0.000,
    Until: 10:08,1.000,
    Until: 10:53,0.048,
    Until: 10:58,1.000,
    Until: 13:04,0.000,
    Until: 13:06,1.000,
    Until: 13:51,0.048,
    Until: 13:56,1.000,
    Until: 18:04,0.000,
    Until: 18:06,1.000,
    Until: 18:51,0.048,
    Until: 18:56,1.000,
    Until: 21:15,0.000,
    Until: 21:17,1.000,
    Until: 22:02,0.048,
    Until: 22:07,1.000,
    Until: 22:32,0.000,
    Until: 22:34,1.000,
    Until: 23:19,0.048,
    Until: 23:24,1.000,
    Until: 24:00,0.000,
    Through: 11/3,
    For: AllDays,
    Until: 07:32,0.000,
    Until: 07:34,1.000,
    Until: 08:19,0.048,
    Until: 08:24,1.000,
    Until: 13:21,0.000,
    Until: 13:23,1.000,
    Until: 14:08,0.048,
    Until: 14:13,1.000,
    Until: 17:37,0.000,
    Until: 17:39,1.000,
    Until: 18:24,0.048,
    Until: 18:29,1.000,
    Until: 21:12,0.000,
    Until: 21:14,1.000,
    Until: 21:59,0.048,
    Until: 22:04,1.000,
    Until: 24:00,0.000,
    Through: 11/4,
    For: AllDays,
    Until: 11:02,0.000,
    Until: 11:04,1.000,
    Until: 11:49,0.048,
    Until: 11:54,1.000,
    Until: 17:40,0.000,
    Until: 17:42,1.000,
    Until: 18:27,0.048,
    Until: 18:32,1.000,
    Until: 22:26,0.000,
    Until: 22:28,1.000,
    Until: 23:13,0.048,
    Until: 23:18,1.000,
    Until: 24:00,0.000,
    Through: 11/5,
    For: AllDays,
    Until: 07:24,0.000,
    Until: 07:26,1.000,
    Until: 08:11,0.048,
    Until: 08:16,1.000,
    Until: 12:39,0.000,
    Until: 12:41,1.000,
    Until: 13:26,0.048,
    Until: 13:31,1.000,
    Until: 14:00,0.000,
    Until: 14:02,1.000,
    Until: 14:47,0.048,
    Until: 14:52,1.000,
    Until: 18:35,0.000,
    Until: 18:37,1.000,
    Until: 19:22,0.048,
    Until: 19:27,1.000,
    Until: 20:54,0.000,
    Until: 20:56,1.000,
    Until: 21:41,0.048,
    Until: 21:46,1.000,
    Until: 22:58,0.000,
    Until: 23:00,1.000,
    Until: 23:45,0.048,
    Until: 23:50,1.000,
    Until: 24:00,0.000,
    Through: 11/6,
    For: AllDays,
    Until: 06:51,0.000,
    Until: 06:53,1.000,
    Until: 07:38,0.048,
    Until: 07:43,1.000,
    Until: 10:31,0.000,
    Until: 10:33,1.000,
    Until: 11:18,0.048,
    Until: 11:23,1.000,
    Until: 17:27,0.000,
    Until: 17:29,1.000,
    Until: 18:14,0.048,
    Until: 18:19,1.000,
    Until: 19:54,0.000,
    Until: 19:56,1.000,
    Until: 20:41,0.048,
    Until: 20:46,1.000,
    Until: 21:19,0.000,
    Until: 21:21,1.000,
    Until: 22:06,0.048,
    Until: 22:11,1.000,
    Until: 22:39,0.000,
    Until: 22:41,1.000,
    Until: 23:26,0.048,
    Until: 23:31,1.000,
    Until: 24:00,0.000,
    Through: 11/7,
    For: AllDays,
    Until: 24:00,0.000,
    Through: 11/8,
    For: AllDays,
    Until: 24:00,0.000,
    Through: 11/9,
    For: AllDays,
    Until: 12:03,0.000,
    Until: 12:05,1.000,
    Until: 12:50,0.048,
    Until: 12:55,1.000,
    Until: 13:37,0.000,
    Until: 13:39,1.000,
    Until: 14:24,0.048,
    Until: 14:29,1.000,
    Until: 21:20,0.000,
    Until: 21:22,1.000,
    Until: 22:07,0.048,
    Until: 22:12,1.000,
    Until: 24:00,0.000,
    Through: 11/10,
    For: AllDays,
    Until: 07:22,0.000,
    Until: 07:24,1.000,
    Until: 08:09,0.048,
    Until: 08:14,1.000,
    Until: 11:54,0.000,
    Until: 11:56,1.000,
    Until: 12:41,0.048,
    Until: 12:46,1.000,
    Until: 17:37,0.000,
    Until: 17:39,1.000,
    Until: 18:24,0.048,
    Until: 18:29,1.000,
    Until: 20:05,0.000,
    Until: 20:07,1.000,
    Until: 20:52,0.048,
    Until: 20:57,1.000,
    Until: 21:53,0.000,
    Until: 21:55,1.000,
    Until: 22:40,0.048,
    Until: 22:45,1.000,
    Until: 24:00,0.000,
    Through: 11/11,
    For: AllDays,
    Until: 12:38,0.000,
    Until: 12:40,1.000,
    Until: 13:25,0.048,
    Until: 13:30,1.000,
    Until: 15:05,0.000,
    Until: 15:07,1.000,
    Until: 15:52,0.048,
    Until: 15:57,1.000,
    Until: 18:03,0.000,
    Until: 18:05,1.000,
    Until: 18:50,0.048,
    Until: 18:55,1.000,
    Until: 21:58,0.000,
    Until: 22:00,1.000,
    Until: 22:45,0.048,
    Until: 22:50,1.000,
    Until: 22:51,0.000,
    Until: 22:53,1.000,
    Until: 23:38,0.048,
    Until: 23:43,1.000,
    Until: 24:00,0.000,
    Through: 11/12,
    For: AllDays,
    Until: 08:21,0.000,
    Until: 08:23,1.000,
    Until: 09:08,0.048,
    Until: 09:13,1.000,
    Until: 09:59,0.000,
    Until: 10:01,1.000,
    Until: 10:46,0.048,
    Until: 10:51,1.000,
    Until: 12:46,0.000,
    Until: 12:48,1.000,
    Until: 13:33,0.048,
    Until: 13:38,1.000,
    Until: 22:21,0.000,
    Until: 22:23,1.000,
    Until: 23:08,0.048,
    Until: 23:13,1.000,
    Until: 23:56,0.000,
    Until: 23:58,1.000,
    Until: 24:00,0.048,
    Through: 11/13,
    For: AllDays,
    Until: 00:43,0.048,
    Until: 00:48,1.000,
    Until: 12:20,0.000,
    Until: 12:22,1.000,
    Until: 13:07,0.048,
    Until: 13:12,1.000,
    Until: 15:06,0.000,
    Until: 15:08,1.000,
    Until: 15:53,0.048,
    Until: 15:58,1.000,
    Until: 20:27,0.000,
    Until: 20:29,1.000,
    Until: 21:14,0.048,
    Until: 21:19,1.000,
    Until: 22:52,0.000,
    Until: 22:54,1.000,
    Until: 23:39,0.048,
    Until: 23:44,1.000,
    Until: 23:45,0.000,
    Until: 23:47,1.000,
    Until: 24:00,0.048,
    Through: 11/14,
    For: AllDays,
    Until: 00:32,0.048,
    Until: 00:37,1.000,
    Until: 24:00,0.000,
    Through: 11/15,
    For: AllDays,
    Until: 24:00,0.000,
    Through: 11/16,
    For: AllDays,
    Until: 12:15,0.000,
    Until: 12:17,1.000,
    Until: 13:02,0.048,
    Until: 13:07,1.000,
    Until: 15:38,0.000,
    Until: 15:40,1.000,
    Until: 16:25,0.048,
    Until: 16:30,1.000,
    Until: 20:38,0.000,
    Until: 20:40,1.000,
    Until: 21:25,0.048,
    Until: 21:30,1.000,
    Until: 22:33,0.000,
    Until: 22:35,1.000,
    Until: 23:20,0.048,
    Until: 23:25,1.000,
    Until: 24:00,0.000,
    Through: 11/17,
    For: AllDays,
    Until: 12:59,0.000,
    Until: 13:01,1.000,
    Until: 13:46,0.048,
    Until: 13:51,1.000,
    Until: 17:59,0.000,
    Until: 18:01,1.000,
    Until: 18:46,0.048,
    Until: 18:51,1.000,
    Until: 21:18,0.000,
    Until: 21:20,1.000,
    Until: 22:05,0.048,
    Until: 22:10,1.000,
    Until: 22:21,0.000,
    Until: 22:23,1.000,
    Until: 23:08,0.048,
    Until: 23:13,1.000,
    Until: 23:14,0.000,
    Until: 23:16,1.000,
    Until: 24:00,0.048,
    Through: 11/18,
    For: AllDays,
    Until: 00:01,0.048,
    Until: 00:06,1.000,
    Until: 10:52,0.000,
    Until: 10:54,1.000,
    Until: 11:39,0.048,
    Until: 11:44,1.000,
    Until: 17:49,0.000,
    Until: 17:51,1.000,
    Until: 18:36,0.048,
    Until: 18:41,1.000,
    Until: 22:57,0.000,
    Until: 22:59,1.000,
    Until: 23:44,0.048,
    Until: 23:49,1.000,
    Until: 24:00,0.000,
    Through: 11/19,
    For: AllDays,
    Until: 07:20,0.000,
    Until: 07:22,1.000,
    Until: 08:07,0.048,
    Until: 08:12,1.000,
    Until: 10:29,0.000,
    Until: 10:31,1.000,
    Until: 11:16,0.048,
    Until: 11:21,1.000,
    Until: 11:38,0.000,
    Until: 11:40,1.000,
    Until: 12:25,0.048,
    Until: 12:30,1.000,
    Until: 15:54,0.000,
    Until: 15:56,1.000,
    Until: 16:41,0.048,
    Until: 16:46,1.000,
    Until: 21:55,0.000,
    Until: 21:57,1.000,
    Until: 22:42,0.048,
    Until: 22:47,1.000,
    Until: 24:00,0.000,
    Through: 11/20,
    For: AllDays,
    Until: 06:26,0.000,
    Until: 06:28,1.000,
    Until: 07:13,0.048,
    Until: 07:18,1.000,
    Until: 11:59,0.000,
    Until: 12:01,1.000,
    Until: 12:46,0.048,
    Until: 12:51,1.000,
    Until: 21:41,0.000,
    Until: 21:43,1.000,
    Until: 22:28,0.048,
    Until: 22:33,1.000,
    Until: 22:54,0.000,
    Until: 22:56,1.000,
    Until: 23:41,0.048,
    Until: 23:46,1.000,
    Until: 24:00,0.000,
    Through: 11/21,
    For: AllDays,
    Until: 24:00,0.000,
    Through: 11/22,
    For: AllDays,
    Until: 24:00,0.000,
    Through: 11/23,
    For: AllDays,
    Until: 05:47,0.000,
    Until: 05:49,1.000,
    Until: 06:34,0.048,
    Until: 06:39,1.000,
    Until: 11:26,0.000,
    Until: 11:28,1.000,
    Until: 12:13,0.048,
    Until: 12:18,1.000,
    Until: 12:20,0.000,
    Until: 12:22,1.000,
    Until: 13:07,0.048,
    Until: 13:12,1.000,
    Until: 13:35,0.000,
    Until: 13:37,1.000,
    Until: 14:22,0.048,
    Until: 14:27,1.000,
    Until: 17:51,0.000,
    Until: 17:53,1.000,
    Until: 18:38,0.048,
    Until: 18:43,1.000,
    Until: 22:00,0.000,
    Until: 22:02,1.000,
    Until: 22:47,0.048,
    Until: 22:52,1.000,
    Until: 23:07,0.000,
    Until: 23:09,1.000,
    Until: 23:54,0.048,
    Until: 23:59,1.000,
    Until: 24:00,0.000,
    Through: 11/24,
    For: AllDays,
    Until: 06:57,0.000,
    Until: 06:59,1.000,
    Until: 07:44,0.048,
    Until: 07:49,1.000,
    Until: 10:19,0.000,
    Until: 10:21,1.000,
    Until: 11:06,0.048,
    Until: 11:11,1.000,
    Until: 17:49,0.000,
    Until: 17:51,1.000,
    Until: 18:36,0.048,
    Until: 18:41,1.000,
    Until: 21:42,0.000,
    Until: 21:44,1.000,
    Until: 22:29,0.048,
    Until: 22:34,1.000,
    Until: 22:55,0.000,
    Until: 22:57,1.000,
    Until: 23:42,0.048,
    Until: 23:47,1.000,
    Until: 24:00,0.000,
    Through: 11/25,
    For: AllDays,
    Until: 07:42,0.000,
    Until: 07:44,1.000,
    Until: 08:29,0.048,
    Until: 08:34,1.000,
    Until: 11:34,0.000,
    Until: 11:36,1.000,
    Until: 12:21,0.048,
    Until: 12:26,1.000,
    Until: 12:39,0.000,
    Until: 12:41,1.000,
    Until: 13:26,0.048,
    Until: 13:31,1.000,
    Until: 16:42,0.000,
    Until: 16:44,1.000,
    Until: 17:29,0.048,
    Until: 17:34,1.000,
    Until: 21:15,0.000,
    Until: 21:17,1.000,
    Until: 22:02,0.048,
    Until: 22:07,1.000,
    Until: 22:57,0.000,
    Until: 22:59,1.000,
    Until: 23:44,0.048,
    Until: 23:49,1.000,
    Until: 24:00,0.000,
    Through: 11/26,
    For: AllDays,
    Until: 08:39,0.000,
    Until: 08:41,1.000,
    Until: 09:26,0.048,
    Until: 09:31,1.000,
    Until: 12:25,0.000,
    Until: 12:27,1.000,
    Until: 13:12,0.048,
    Until: 13:17,1.000,
    Until: 13:33,0.000,
    Until: 13:35,1.000,
    Until: 14:20,0.048,
    Until: 14:25,1.000,
    Until: 16:45,0.000,
    Until: 16:47,1.000,
    Until: 17:32,0.048,
    Until: 17:37,1.000,
    Until: 20:53,0.000,
    Until: 20:55,1.000,
    Until: 21:40,0.048,
    Until: 21:45,1.000,
    Until: 22:03,0.000,
    Until: 22:05,1.000,
    Until: 22:50,0.048,
    Until: 22:55,1.000,
    Until: 22:59,0.000,
    Until: 23:01,1.000,
    Until: 23:46,0.048,
    Until: 23:51,1.000,
    Until: 24:00,0.000,
    Through: 11/27,
    For: AllDays,
    Until: 10:32,0.000,
    Until: 10:34,1.000,
    Until: 11:19,0.048,
    Until: 11:24,1.000,
    Until: 13:10,0.000,
    Until: 13:12,1.000,
    Until: 13:57,0.048,
    Until: 14:02,1.000,
    Until: 20:04,0.000,
    Until: 20:06,1.000,
    Until: 20:51,0.048,
    Until: 20:56,1.000,
    Until: 21:44,0.000,
    Until: 21:46,1.000,
    Until: 22:31,0.048,
    Until: 22:36,1.000,
    Until: 24:00,0.000,
    Through: 11/28,
    For: AllDays,
    Until: 24:00,0.000,
    Through: 11/29,
    For: AllDays,
    Until: 24:00,0.000,
    Through: 11/30,
    For: AllDays,
    Until: 12:14,0.000,
    Until: 12:16,1.000,
    Until: 13:01,0.048,
    Until: 13:06,1.000,
    Until: 19:50,0.000,
    Until: 19:52,1.000,
    Until: 20:37,0.048,
    Until: 20:42,1.000,
    Until: 22:03,0.000,
    Until: 22:05,1.000,
    Until: 22:50,0.048,
    Until: 22:55,1.000,
    Until: 23:03,0.000,
    Until: 23:05,1.000,
    Until: 23:50,0.048,
    Until: 23:55,1.000,
    Until: 24:00,0.000,
    Through: 12/1,
    For: AllDays,
    Until: 11:19,0.000,
    Until: 11:21,1.000,
    Until: 12:06,0.048,
    Until: 12:11,1.000,
    Until: 12:34,0.000,
    Until: 12:36,1.000,
    Until: 13:21,0.048,
    Until: 13:26,1.000,
    Until: 18:05,0.000,
    Until: 18:07,1.000,
    Until: 18:52,0.048,
    Until: 18:57,1.000,
    Until: 20:29,0.000,
    Until: 20:31,1.000,
    Until: 21:16,0.048,
    Until: 21:21,1.000,
    Until: 21:22,0.000,
    Until: 21:24,1.000,
    Until: 22:09,0.048,
    Until: 22:14,1.000,
    Until: 24:00,0.000,
    Through: 12/2,
    For: AllDays,
    Until: 15:09,0.000,
    Until: 15:11,1.000,
    Until: 15:56,0.048,
    Until: 16:01,1.000,
    Until: 22:19,0.000,
    Until: 22:21,1.000,
    Until: 23:06,0.048,
    Until: 23:11,1.000,
    Until: 23:40,0.000,
    Until: 23:42,1.000,
    Until: 24:00,0.048,
    Through: 12/3,
    For: AllDays,
    Until: 00:27,0.048,
    Until: 00:32,1.000,
    Until: 13:15,0.000,
    Until: 13:17,1.000,
    Until: 14:02,0.048,
    Until: 14:07,1.000,
    Until: 15:09,0.000,
    Until: 15:11,1.000,
    Until: 15:56,0.048,
    Until: 16:01,1.000,
    Until: 16:49,0.000,
    Until: 16:51,1.000,
    Until: 17:36,0.048,
    Until: 17:41,1.000,
    Until: 21:01,0.000,
    Until: 21:03,1.000,
    Until: 21:48,0.048,
    Until: 21:53,1.000,
    Until: 21:55,0.000,
    Until: 21:57,1.000,
    Until: 22:42,0.048,
    Until: 22:47,1.000,
    Until: 24:00,0.000,
    Through: 12/4,
    For: AllDays,
    Until: 23:18,0.000,
    Until: 23:20,1.000,
    Until: 24:00,0.048,
    Through: 12/5,
    For: AllDays,
    Until: 00:05,0.048,
    Until: 00:10,1.000,
    Until: 24:00,0.000,
    Through: 12/6,
    For: AllDays,
    Until: 24:00,0.000,
    Through: 12/7,
    For: AllDays,
    Until: 06:27,0.000,
    Until: 06:29,1.000,
    Until: 07:14,0.048,
    Until: 07:19,1.000,
    Until: 11:26,0.000,
    Until: 11:28,1.000,
    Until: 12:13,0.048,
    Until: 12:18,1.000,
    Until: 15:26,0.000,
    Until: 15:28,1.000,
    Until: 16:13,0.048,
    Until: 16:18,1.000,
    Until: 19:56,0.000,
    Until: 19:58,1.000,
    Until: 20:43,0.048,
    Until: 20:48,1.000,
    Until: 21:19,0.000,
    Until: 21:21,1.000,
    Until: 22:06,0.048,
    Until: 22:11,1.000,
    Until: 22:19,0.000,
    Until: 22:21,1.000,
    Until: 23:06,0.048,
    Until: 23:11,1.000,
    Until: 24:00,0.000,
    Through: 12/8,
    For: AllDays,
    Until: 13:13,0.000,
    Until: 13:15,1.000,
    Until: 14:00,0.048,
    Until: 14:05,1.000,
    Until: 14:54,0.000,
    Until: 14:56,1.000,
    Until: 15:41,0.048,
    Until: 15:46,1.000,
    Until: 18:08,0.000,
    Until: 18:10,1.000,
    Until: 18:55,0.048,
    Until: 19:00,1.000,
    Until: 22:43,0.000,
    Until: 22:45,1.000,
    Until: 23:30,0.048,
    Until: 23:35,1.000,
    Until: 24:00,0.000,
    Through: 12/9,
    For: AllDays,
    Until: 08:43,0.000,
    Until: 08:45,1.000,
    Until: 09:30,0.048,
    Until: 09:35,1.000,
    Until: 11:23,0.000,
    Until: 11:25,1.000,
    Until: 12:10,0.048,
    Until: 12:15,1.000,
    Until: 18:02,0.000,
    Until: 18:04,1.000,
    Until: 18:49,0.048,
    Until: 18:54,1.000,
    Until: 20:29,0.000,
    Until: 20:31,1.000,
    Until: 21:16,0.048,
    Until: 21:21,1.000,
    Until: 21:54,0.000,
    Until: 21:56,1.000,
    Until: 22:41,0.048,
    Until: 22:46,1.000,
    Until: 22:52,0.000,
    Until: 22:54,1.000,
    Until: 23:39,0.048,
    Until: 23:44,1.000,
    Until: 24:00,0.000,
    Through: 12/10,
    For: AllDays,
    Until: 10:00,0.000,
    Until: 10:02,1.000,
    Until: 10:47,0.048,
    Until: 10:52,1.000,
    Until: 11:27,0.000,
    Until: 11:29,1.000,
    Until: 12:14,0.048,
    Until: 12:19,1.000,
    Until: 12:30,0.000,
    Until: 12:32,1.000,
    Until: 13:17,0.048,
    Until: 13:22,1.000,
    Until: 20:08,0.000,
    Until: 20:10,1.000,
    Until: 20:55,0.048,
    Until: 21:00,1.000,
    Until: 21:58,0.000,
    Until: 22:00,1.000,
    Until: 22:45,0.048,
    Until: 22:50,1.000,
    Until: 24:00,0.000,
    Through: 12/11,
    For: AllDays,
    Until: 09:58,0.000,
    Until: 10:00,1.000,
    Until: 10:45,0.048,
    Until: 10:50,1.000,
    Until: 12:27,0.000,
    Until: 12:29,1.000,
    Until: 13:14,0.048,
    Until: 13:19,1.000,
    Until: 15:19,0.000,
    Until: 15:21,1.000,
    Until: 16:06,0.048,
    Until: 16:11,1.000,
    Until: 16:29,0.000,
    Until: 16:31,1.000,
    Until: 17:16,0.048,
    Until: 17:21,1.000,
    Until: 18:39,0.000,
    Until: 18:41,1.000,
    Until: 19:26,0.048,
    Until: 19:31,1.000,
    Until: 20:28,0.000,
    Until: 20:30,1.000,
    Until: 21:15,0.048,
    Until: 21:20,1.000,
    Until: 21:52,0.000,
    Until: 21:54,1.000,
    Until: 22:39,0.048,
    Until: 22:44,1.000,
    Until: 24:00,0.000,
    Through: 12/12,
    For: AllDays,
    Until: 24:00,0.000,
    Through: 12/13,
    For: AllDays,
    Until: 24:00,0.000,
    Through: 12/14,
    For: AllDays,
    Until: 12:03,0.000,
    Until: 12:05,1.000,
    Until: 12:50,0.048,
    Until: 12:55,1.000,
    Until: 13:06,0.000,
    Until: 13:08,1.000,
    Until: 13:53,0.048,
    Until: 13:58,1.000,
    Until: 21:06,0.000,
    Until: 21:08,1.000,
    Until: 21:53,0.048,
    Until: 21:58,1.000,
    Until: 22:45,0.000,
    Until: 22:47,1.000,
    Until: 23:32,0.048,
    Until: 23:37,1.000,
    Until: 24:00,0.000,
    Through: 12/15,
    For: AllDays,
    Until: 08:50,0.000,
    Until: 08:52,1.000,
    Until: 09:37,0.048,
    Until: 09:42,1.000,
    Until: 10:20,0.000,
    Until: 10:22,1.000,
    Until: 11:07,0.048,
    Until: 11:12,1.000,
    Until: 13:27,0.000,
    Until: 13:29,1.000,
    Until: 14:14,0.048,
    Until: 14:19,1.000,
    Until: 16:10,0.000,
    Until: 16:12,1.000,
    Until: 16:57,0.048,
    Until: 17:02,1.000,
    Until: 17:08,0.000,
    Until: 17:10,1.000,
    Until: 17:55,0.048,
    Until: 18:00,1.000,
    Until: 21:04,0.000,
    Until: 21:06,1.000,
    Until: 21:51,0.048,
    Until: 21:56,1.000,
    Until: 22:26,0.000,
    Until: 22:28,1.000,
    Until: 23:13,0.048,
    Until: 23:18,1.000,
    Until: 24:00,0.000,
    Through: 12/16,
    For: AllDays,
    Until: 06:49,0.000,
    Until: 06:51,1.000,
    Until: 07:36,0.048,
    Until: 07:41,1.000,
    Until: 10:47,0.000,
    Until: 10:49,1.000,
    Until: 11:34,0.048,
    Until: 11:39,1.000,
    Until: 18:13,0.000,
    Until: 18:15,1.000,
    Until: 19:00,0.048,
    Until: 19:05,1.000,
    Until: 20:41,0.000,
    Until: 20:43,1.000,
    Until: 21:28,0.048,
    Until: 21:33,1.000,
    Until: 21:34,0.000,
    Until: 21:36,1.000,
    Until: 22:21,0.048,
    Until: 22:26,1.000,
    Until: 24:00,0.000,
    Through: 12/17,
    For: AllDays,
    Until: 05:32,0.000,
    Until: 05:34,1.000,
    Until: 06:19,0.048,
    Until: 06:24,1.000,
    Until: 12:22,0.000,
    Until: 12:24,1.000,
    Until: 13:09,0.048,
    Until: 13:14,1.000,
    Until: 16:11,0.000,
    Until: 16:13,1.000,
    Until: 16:58,0.048,
    Until: 17:03,1.000,
    Until: 21:35,0.000,
    Until: 21:37,1.000,
    Until: 22:22,0.048,
    Until: 22:27,1.000,
    Until: 22:28,0.000,
    Until: 22:30,1.000,
    Until: 23:15,0.048,
    Until: 23:20,1.000,
    Until: 23:35,0.000,
    Until: 23:37,1.000,
    Until: 24:00,0.048,
    Through: 12/18,
    For: AllDays,
    Until: 00:22,0.048,
    Until: 00:27,1.000,
    Until: 12:00,0.000,
    Until: 12:02,1.000,
    Until: 12:47,0.048,
    Until: 12:52,1.000,
    Until: 13:11,0.000,
    Until: 13:13,1.000,
    Until: 13:58,0.048,
    Until: 14:03,1.000,
    Until: 15:56,0.000,
    Until: 15:58,1.000,
    Until: 16:43,0.048,
    Until: 16:48,1.000,
    Until: 20:47,0.000,
    Until: 20:49,1.000,
    Until: 21:34,0.048,
    Until: 21:39,1.000,
    Until: 22:15,0.000,
    Until: 22:17,1.000,
    Until: 23:02,0.048,
    Until: 23:07,1.000,
    Until: 23:22,0.000,
    Until: 23:24,1.000,
    Until: 24:00,0.048,
    Through: 12/19,
    For: AllDays,
    Until: 00:09,0.048,
    Until: 00:14,1.000,
    Until: 24:00,0.000,
    Through: 12/20,
    For: AllDays,
    Until: 24:00,0.000,
    Through: 12/21,
    For: AllDays,
    Until: 08:01,0.000,
    Until: 08:03,1.000,
    Until: 08:48,0.048,
    Until: 08:53,1.000,
    Until: 12:24,0.000,
    Until: 12:26,1.000,
    Until: 13:11,0.048,
    Until: 13:16,1.000,
    Until: 13:17,0.000,
    Until: 13:19,1.000,
    Until: 14:04,0.048,
    Until: 14:09,1.000,
    Until: 16:16,0.000,
    Until: 16:18,1.000,
    Until: 17:03,0.048,
    Until: 17:08,1.000,
    Until: 20:51,0.000,
    Until: 20:53,1.000,
    Until: 21:38,0.048,
    Until: 21:43,1.000,
    Until: 23:10,0.000,
    Until: 23:12,1.000,
    Until: 23:57,0.048,
    Until: 24:00,1.000,
    Through: 12/22,
    For: AllDays,
    Until: 00:02,1.000,
    Until: 08:52,0.000,
    Until: 08:54,1.000,
    Until: 09:39,0.048,
    Until: 09:44,1.000,
    Until: 10:57,0.000,
    Until: 10:59,1.000,
    Until: 11:44,0.048,
    Until: 11:49,1.000,
    Until: 12:49,0.000,
    Until: 12:51,1.000,
    Until: 13:36,0.048,
    Until: 13:41,1.000,
    Until: 16:57,0.000,
    Until: 16:59,1.000,
    Until: 17:44,0.048,
    Until: 17:49,1.000,
    Until: 20:46,0.000,
    Until: 20:48,1.000,
    Until: 21:33,0.048,
    Until: 21:38,1.000,
    Until: 22:00,0.000,
    Until: 22:02,1.000,
    Until: 22:47,0.048,
    Until: 22:52,1.000,
    Until: 24:00,0.000,
    Through: 12/23,
    For: AllDays,
    Until: 20:22,0.000,
    Until: 20:24,1.000,
    Until: 21:09,0.048,
    Until: 21:14,1.000,
    Until: 21:15,0.000,
    Until: 21:17,1.000,
    Until: 22:02,0.048,
    Until: 22:07,1.000,
    Until: 22:16,0.000,
    Until: 22:18,1.000,
    Until: 23:03,0.048,
    Until: 23:08,1.000,
    Until: 24:00,0.000,
    Through: 12/24,
    For: AllDays,
    Until: 13:03,0.000,
    Until: 13:05,1.000,
    Until: 13:50,0.048,
    Until: 13:55,1.000,
    Until: 20:11,0.000,
    Until: 20:13,1.000,
    Until: 20:58,0.048,
    Until: 21:03,1.000,
    Until: 21:36,0.000,
    Until: 21:38,1.000,
    Until: 22:23,0.048,
    Until: 22:28,1.000,
    Until: 22:29,0.000,
    Until: 22:31,1.000,
    Until: 23:16,0.048,
    Until: 23:21,1.000,
    Until: 24:00,0.000,
    Through: 12/25,
    For: AllDays,
    Until: 06:09,0.000,
    Until: 06:11,1.000,
    Until: 06:56,0.048,
    Until: 07:01,1.000,
    Until: 09:51,0.000,
    Until: 09:53,1.000,
    Until: 10:38,0.048,
    Until: 10:43,1.000,
    Until: 12:05,0.000,
    Until: 12:07,1.000,
    Until: 12:52,0.048,
    Until: 12:57,1.000,
    Until: 21:22,0.000,
    Until: 21:24,1.000,
    Until: 22:09,0.048,
    Until: 22:14,1.000,
    Until: 22:15,0.000,
    Until: 22:17,1.000,
    Until: 23:02,0.048,
    Until: 23:07,1.000,
    Until: 23:45,0.000,
    Until: 23:47,1.000,
    Until: 24:00,0.048,
    Through: 12/26,
    For: AllDays,
    Until: 00:32,0.048,
    Until: 00:37,1.000,
    Until: 24:00,0.000,
    Through: 12/27,
    For: AllDays,
    Until: 24:00,0.000,
    Through: 12/28,
    For: AllDays,
    Until: 06:58,0.000,
    Until: 07:00,1.000,
    Until: 07:45,0.048,
    Until: 07:50,1.000,
    Until: 10:58,0.000,
    Until: 11:00,1.000,
    Until: 11:45,0.048,
    Until: 11:50,1.000,
    Until: 16:00,0.000,
    Until: 16:02,1.000,
    Until: 16:47,0.048,
    Until: 16:52,1.000,
    Until: 21:06,0.000,
    Until: 21:08,1.000,
    Until: 21:53,0.048,
    Until: 21:58,1.000,
    Until: 21:59,0.000,
    Until: 22:01,1.000,
    Until: 22:46,0.048,
    Until: 22:51,1.000,
    Until: 24:00,0.000,
    Through: 12/29,
    For: AllDays,
    Until: 08:16,0.000,
    Until: 08:18,1.000,
    Until: 09:03,0.048,
    Until: 09:08,1.000,
    Until: 11:18,0.000,
    Until: 11:20,1.000,
    Until: 12:05,0.048,
    Until: 12:10,1.000,
    Until: 12:21,0.000,
    Until: 12:23,1.000,
    Until: 13:08,0.048,
    Until: 13:13,1.000,
    Until: 18:36,0.000,
    Until: 18:38,1.000,
    Until: 19:23,0.048,
    Until: 19:28,1.000,
    Until: 20:09,0.000,
    Until: 20:11,1.000,
    Until: 20:56,0.048,
    Until: 21:01,1.000,
    Until: 23:28,0.000,
    Until: 23:30,1.000,
    Until: 24:00,0.048,
    Through: 12/30,
    For: AllDays,
    Until: 00:15,0.048,
    Until: 00:20,1.000,
    Until: 07:43,0.000,
    Until: 07:45,1.000,
    Until: 08:30,0.048,
    Until: 08:35,1.000,
    Until: 11:15,0.000,
    Until: 11:17,1.000,
    Until: 12:02,0.048,
    Until: 12:07,1.000,
    Until: 12:15,0.000,
    Until: 12:17,1.000,
    Until: 13:02,0.048,
    Until: 13:07,1.000,
    Until: 15:55,0.000,
    Until: 15:57,1.000,
    Until: 16:42,0.048,
    Until: 16:47,1.000,
    Until: 21:08,0.000,
    Until: 21:10,1.000,
    Until: 21:55,0.048,
    Until: 22:00,1.000,
    Until: 22:10,0.000,
    Until: 22:12,1.000,
    Until: 22:57,0.048,
    Until: 23:02,1.000,
    Until: 23:43,0.000,
    Until: 23:45,1.000,
    Until: 24:00,0.048,
    Through: 12/31,
    For: AllDays,
    Until: 00:30,0.048,
    Until: 00:35,1.000,
    Until: 11:02,0.000,
    Until: 11:04,1.000,
    Until: 11:49,0.048,
    Until: 11:54,1.000,
    Until: 12:39,0.000,
    Until: 12:41,1.000,
    Until: 13:26,0.048,
    Until: 13:31,1.000,
    Until: 17:29,0.000,
    Until: 17:31,1.000,
    Until: 18:16,0.048,
    Until: 18:21,1.000,
    Until: 18:30,0.000,
    Until: 18:32,1.000,
    Until: 19:17,0.048,
    Until: 19:22,1.000,
    Until: 21:51,0.000,
    Until: 21:53,1.000,
    Until: 22:38,0.048,
    Until: 22:43,1.000,
    Until: 22:44,0.000,
    Until: 22:46,1.000,
    Until: 23:31,0.048,
    Until: 23:36,1.000,
    Until: 23:38,0.000,
    Until: 23:40,1.000,
    Until: 24:00,0.048,
    Through: 1/2,
    For: AllDays,
    Until: 24:00,0.000;

Schedule:Compact,
    AB_3_Tor_Schedule,       !- Name
    Fraction,                !- Schedule Type Limits Name
    Through: 1/1,
    For: AllDays,
    Until: 24:00,0.000,
    Through: 1/2,
    For: AllDays,
    Until: 24:00,0.000,
    Through: 1/3,
    For: AllDays,
    Until: 24:00,0.000,
    Through: 1/4,
    For: AllDays,
    Until: 24:00,0.000,
    Through: 1/5,
    For: AllDays,
    Until: 12:26,0.000,
    Until: 12:28,1.000,
    Until: 13:13,0.048,
    Until: 13:18,1.000,
    Until: 16:42,0.000,
    Until: 16:44,1.000,
    Until: 17:29,0.048,
    Until: 17:34,1.000,
    Until: 21:01,0.000,
    Until: 21:03,1.000,
    Until: 21:48,0.048,
    Until: 21:53,1.000,
    Until: 23:06,0.000,
    Until: 23:08,1.000,
    Until: 23:53,0.048,
    Until: 23:58,1.000,
    Until: 24:00,0.000,
    Through: 1/6,
    For: AllDays,
    Until: 06:44,0.000,
    Until: 06:46,1.000,
    Until: 07:31,0.048,
    Until: 07:36,1.000,
    Until: 12:07,0.000,
    Until: 12:09,1.000,
    Until: 12:54,0.048,
    Until: 12:59,1.000,
    Until: 13:48,0.000,
    Until: 13:50,1.000,
    Until: 14:35,0.048,
    Until: 14:40,1.000,
    Until: 19:03,0.000,
    Until: 19:05,1.000,
    Until: 19:50,0.048,
    Until: 19:55,1.000,
    Until: 20:23,0.000,
    Until: 20:25,1.000,
    Until: 21:10,0.048,
    Until: 21:15,1.000,
    Until: 21:55,0.000,
    Until: 21:57,1.000,
    Until: 22:42,0.048,
    Until: 22:47,1.000,
    Until: 24:00,0.000,
    Through: 1/7,
    For: AllDays,
    Until: 05:32,0.000,
    Until: 05:34,1.000,
    Until: 06:19,0.048,
    Until: 06:24,1.000,
    Until: 11:39,0.000,
    Until: 11:41,1.000,
    Until: 12:26,0.048,
    Until: 12:31,1.000,
    Until: 16:41,0.000,
    Until: 16:43,1.000,
    Until: 17:28,0.048,
    Until: 17:33,1.000,
    Until: 20:09,0.000,
    Until: 20:11,1.000,
    Until: 20:56,0.048,
    Until: 21:01,1.000,
    Until: 22:00,0.000,
    Until: 22:02,1.000,
    Until: 22:47,0.048,
    Until: 22:52,1.000,
    Until: 24:00,0.000,
    Through: 1/8,
    For: AllDays,
    Until: 10:54,0.000,
    Until: 10:56,1.000,
    Until: 11:41,0.048,
    Until: 11:46,1.000,
    Until: 11:55,0.000,
    Until: 11:57,1.000,
    Until: 12:42,0.048,
    Until: 12:47,1.000,
    Until: 17:11,0.000,
    Until: 17:13,1.000,
    Until: 17:58,0.048,
    Until: 18:03,1.000,
    Until: 18:05,0.000,
    Until: 18:07,1.000,
    Until: 18:52,0.048,
    Until: 18:57,1.000,
    Until: 20:42,0.000,
    Until: 20:44,1.000,
    Until: 21:29,0.048,
    Until: 21:34,1.000,
    Until: 22:58,0.000,
    Until: 23:00,1.000,
    Until: 23:45,0.048,
    Until: 23:50,1.000,
    Until: 24:00,0.000,
    Through: 1/9,
    For: AllDays,
    Until: 18:25,0.000,
    Until: 18:27,1.000,
    Until: 19:12,0.048,
    Until: 19:17,1.000,
    Until: 21:27,0.000,
    Until: 21:29,1.000,
    Until: 22:14,0.048,
    Until: 22:19,1.000,
    Until: 22:20,0.000,
    Until: 22:22,1.000,
    Until: 23:07,0.048,
    Until: 23:12,1.000,
    Until: 23:13,0.000,
    Until: 23:15,1.000,
    Until: 24:00,0.048,
    Through: 1/10,
    For: AllDays,
    Until: 00:00,0.048,
    Until: 00:05,1.000,
    Until: 24:00,0.000,
    Through: 1/11,
    For: AllDays,
    Until: 24:00,0.000,
    Through: 1/12,
    For: AllDays,
    Until: 07:48,0.000,
    Until: 07:50,1.000,
    Until: 08:35,0.048,
    Until: 08:40,1.000,
    Until: 12:16,0.000,
    Until: 12:18,1.000,
    Until: 13:03,0.048,
    Until: 13:08,1.000,
    Until: 13:13,0.000,
    Until: 13:15,1.000,
    Until: 14:00,0.048,
    Until: 14:05,1.000,
    Until: 21:02,0.000,
    Until: 21:04,1.000,
    Until: 21:49,0.048,
    Until: 21:54,1.000,
    Until: 22:19,0.000,
    Until: 22:21,1.000,
    Until: 23:06,0.048,
    Until: 23:11,1.000,
    Until: 24:00,0.000,
    Through: 1/13,
    For: AllDays,
    Until: 11:43,0.000,
    Until: 11:45,1.000,
    Until: 12:30,0.048,
    Until: 12:35,1.000,
    Until: 13:42,0.000,
    Until: 13:44,1.000,
    Until: 14:29,0.048,
    Until: 14:34,1.000,
    Until: 21:37,0.000,
    Until: 21:39,1.000,
    Until: 22:24,0.048,
    Until: 22:29,1.000,
    Until: 22:38,0.000,
    Until: 22:40,1.000,
    Until: 23:25,0.048,
    Until: 23:30,1.000,
    Until: 24:00,0.000,
    Through: 1/14,
    For: AllDays,
    Until: 13:26,0.000,
    Until: 13:28,1.000,
    Until: 14:13,0.048,
    Until: 14:18,1.000,
    Until: 16:49,0.000,
    Until: 16:51,1.000,
    Until: 17:36,0.048,
    Until: 17:41,1.000,
    Until: 21:53,0.000,
    Until: 21:55,1.000,
    Until: 22:40,0.048,
    Until: 22:45,1.000,
    Until: 23:12,0.000,
    Until: 23:14,1.000,
    Until: 23:59,0.048,
    Until: 24:00,1.000,
    Through: 1/15,
    For: AllDays,
    Until: 00:04,1.000,
    Until: 09:54,0.000,
    Until: 09:56,1.000,
    Until: 10:41,0.048,
    Until: 10:46,1.000,
    Until: 10:53,0.000,
    Until: 10:55,1.000,
    Until: 11:40,0.048,
    Until: 11:45,1.000,
    Until: 21:44,0.000,
    Until: 21:46,1.000,
    Until: 22:31,0.048,
    Until: 22:36,1.000,
    Until: 24:00,0.000,
    Through: 1/16,
    For: AllDays,
    Until: 10:53,0.000,
    Until: 10:55,1.000,
    Until: 11:40,0.048,
    Until: 11:45,1.000,
    Until: 15:24,0.000,
    Until: 15:26,1.000,
    Until: 16:11,0.048,
    Until: 16:16,1.000,
    Until: 16:53,0.000,
    Until: 16:55,1.000,
    Until: 17:40,0.048,
    Until: 17:45,1.000,
    Until: 21:53,0.000,
    Until: 21:55,1.000,
    Until: 22:40,0.048,
    Until: 22:45,1.000,
    Until: 22:51,0.000,
    Until: 22:53,1.000,
    Until: 23:38,0.048,
    Until: 23:43,1.000,
    Until: 23:44,0.000,
    Until: 23:46,1.000,
    Until: 24:00,0.048,
    Through: 1/17,
    For: AllDays,
    Until: 00:31,0.048,
    Until: 00:36,1.000,
    Until: 24:00,0.000,
    Through: 1/18,
    For: AllDays,
    Until: 24:00,0.000,
    Through: 1/19,
    For: AllDays,
    Until: 11:08,0.000,
    Until: 11:10,1.000,
    Until: 11:55,0.048,
    Until: 12:00,1.000,
    Until: 13:09,0.000,
    Until: 13:11,1.000,
    Until: 13:56,0.048,
    Until: 14:01,1.000,
    Until: 16:37,0.000,
    Until: 16:39,1.000,
    Until: 17:24,0.048,
    Until: 17:29,1.000,
    Until: 20:05,0.000,
    Until: 20:07,1.000,
    Until: 20:52,0.048,
    Until: 20:57,1.000,
    Until: 21:11,0.000,
    Until: 21:13,1.000,
    Until: 21:58,0.048,
    Until: 22:03,1.000,
    Until: 23:27,0.000,
    Until: 23:29,1.000,
    Until: 24:00,0.048,
    Through: 1/20,
    For: AllDays,
    Until: 00:14,0.048,
    Until: 00:19,1.000,
    Until: 07:53,0.000,
    Until: 07:55,1.000,
    Until: 08:40,0.048,
    Until: 08:45,1.000,
    Until: 09:51,0.000,
    Until: 09:53,1.000,
    Until: 10:38,0.048,
    Until: 10:43,1.000,
    Until: 11:54,0.000,
    Until: 11:56,1.000,
    Until: 12:41,0.048,
    Until: 12:46,1.000,
    Until: 13:04,0.000,
    Until: 13:06,1.000,
    Until: 13:51,0.048,
    Until: 13:56,1.000,
    Until: 15:40,0.000,
    Until: 15:42,1.000,
    Until: 16:27,0.048,
    Until: 16:32,1.000,
    Until: 21:06,0.000,
    Until: 21:08,1.000,
    Until: 21:53,0.048,
    Until: 21:58,1.000,
    Until: 22:01,0.000,
    Until: 22:03,1.000,
    Until: 22:48,0.048,
    Until: 22:53,1.000,
    Until: 23:36,0.000,
    Until: 23:38,1.000,
    Until: 24:00,0.048,
    Through: 1/21,
    For: AllDays,
    Until: 00:23,0.048,
    Until: 00:28,1.000,
    Until: 07:26,0.000,
    Until: 07:28,1.000,
    Until: 08:13,0.048,
    Until: 08:18,1.000,
    Until: 10:19,0.000,
    Until: 10:21,1.000,
    Until: 11:06,0.048,
    Until: 11:11,1.000,
    Until: 13:17,0.000,
    Until: 13:19,1.000,
    Until: 14:04,0.048,
    Until: 14:09,1.000,
    Until: 21:45,0.000,
    Until: 21:47,1.000,
    Until: 22:32,0.048,
    Until: 22:37,1.000,
    Until: 22:38,0.000,
    Until: 22:40,1.000,
    Until: 23:25,0.048,
    Until: 23:30,1.000,
    Until: 24:00,0.000,
    Through: 1/22,
    For: AllDays,
    Until: 10:58,0.000,
    Until: 11:00,1.000,
    Until: 11:45,0.048,
    Until: 11:50,1.000,
    Until: 11:59,0.000,
    Until: 12:01,1.000,
    Until: 12:46,0.048,
    Until: 12:51,1.000,
    Until: 18:00,0.000,
    Until: 18:02,1.000,
    Until: 18:47,0.048,
    Until: 18:52,1.000,
    Until: 20:09,0.000,
    Until: 20:11,1.000,
    Until: 20:56,0.048,
    Until: 21:01,1.000,
    Until: 22:34,0.000,
    Until: 22:36,1.000,
    Until: 23:21,0.048,
    Until: 23:26,1.000,
    Until: 24:00,0.000,
    Through: 1/23,
    For: AllDays,
    Until: 05:50,0.000,
    Until: 05:52,1.000,
    Until: 06:37,0.048,
    Until: 06:42,1.000,
    Until: 11:25,0.000,
    Until: 11:27,1.000,
    Until: 12:12,0.048,
    Until: 12:17,1.000,
    Until: 13:35,0.000,
    Until: 13:37,1.000,
    Until: 14:22,0.048,
    Until: 14:27,1.000,
    Until: 16:18,0.000,
    Until: 16:20,1.000,
    Until: 17:05,0.048,
    Until: 17:10,1.000,
    Until: 17:31,0.000,
    Until: 17:33,1.000,
    Until: 18:18,0.048,
    Until: 18:23,1.000,
    Until: 19:55,0.000,
    Until: 19:57,1.000,
    Until: 20:42,0.048,
    Until: 20:47,1.000,
    Until: 21:43,0.000,
    Until: 21:45,1.000,
    Until: 22:30,0.048,
    Until: 22:35,1.000,
    Until: 22:47,0.000,
    Until: 22:49,1.000,
    Until: 23:34,0.048,
    Until: 23:39,1.000,
    Until: 24:00,0.000,
    Through: 1/24,
    For: AllDays,
    Until: 24:00,0.000,
    Through: 1/25,
    For: AllDays,
    Until: 24:00,0.000,
    Through: 1/26,
    For: AllDays,
    Until: 06:21,0.000,
    Until: 06:23,1.000,
    Until: 07:08,0.048,
    Until: 07:13,1.000,
    Until: 11:39,0.000,
    Until: 11:41,1.000,
    Until: 12:26,0.048,
    Until: 12:31,1.000,
    Until: 16:09,0.000,
    Until: 16:11,1.000,
    Until: 16:56,0.048,
    Until: 17:01,1.000,
    Until: 17:03,0.000,
    Until: 17:05,1.000,
    Until: 17:50,0.048,
    Until: 17:55,1.000,
    Until: 21:28,0.000,
    Until: 21:30,1.000,
    Until: 22:15,0.048,
    Until: 22:20,1.000,
    Until: 22:21,0.000,
    Until: 22:23,1.000,
    Until: 23:08,0.048,
    Until: 23:13,1.000,
    Until: 24:00,0.000,
    Through: 1/27,
    For: AllDays,
    Until: 11:02,0.000,
    Until: 11:04,1.000,
    Until: 11:49,0.048,
    Until: 11:54,1.000,
    Until: 13:41,0.000,
    Until: 13:43,1.000,
    Until: 14:28,0.048,
    Until: 14:33,1.000,
    Until: 16:40,0.000,
    Until: 16:42,1.000,
    Until: 17:27,0.048,
    Until: 17:32,1.000,
    Until: 21:23,0.000,
    Until: 21:25,1.000,
    Until: 22:10,0.048,
    Until: 22:15,1.000,
    Until: 23:16,0.000,
    Until: 23:18,1.000,
    Until: 24:00,0.048,
    Through: 1/28,
    For: AllDays,
    Until: 00:03,0.048,
    Until: 00:08,1.000,
    Until: 13:07,0.000,
    Until: 13:09,1.000,
    Until: 13:54,0.048,
    Until: 13:59,1.000,
    Until: 16:32,0.000,
    Until: 16:34,1.000,
    Until: 17:19,0.048,
    Until: 17:24,1.000,
    Until: 19:59,0.000,
    Until: 20:01,1.000,
    Until: 20:46,0.048,
    Until: 20:51,1.000,
    Until: 21:43,0.000,
    Until: 21:45,1.000,
    Until: 22:30,0.048,
    Until: 22:35,1.000,
    Until: 23:04,0.000,
    Until: 23:06,1.000,
    Until: 23:51,0.048,
    Until: 23:56,1.000,
    Until: 24:00,0.000,
    Through: 1/29,
    For: AllDays,
    Until: 11:51,0.000,
    Until: 11:53,1.000,
    Until: 12:38,0.048,
    Until: 12:43,1.000,
    Until: 13:37,0.000,
    Until: 13:39,1.000,
    Until: 14:24,0.048,
    Until: 14:29,1.000,
    Until: 16:08,0.000,
    Until: 16:10,1.000,
    Until: 16:55,0.048,
    Until: 17:00,1.000,
    Until: 17:55,0.000,
    Until: 17:57,1.000,
    Until: 18:42,0.048,
    Until: 18:47,1.000,
    Until: 21:30,0.000,
    Until: 21:32,1.000,
    Until: 22:17,0.048,
    Until: 22:22,1.000,
    Until: 22:24,0.000,
    Until: 22:26,1.000,
    Until: 23:11,0.048,
    Until: 23:16,1.000,
    Until: 23:17,0.000,
    Until: 23:19,1.000,
    Until: 24:00,0.048,
    Through: 1/30,
    For: AllDays,
    Until: 00:04,0.048,
    Until: 00:09,1.000,
    Until: 09:07,0.000,
    Until: 09:09,1.000,
    Until: 09:54,0.048,
    Until: 09:59,1.000,
    Until: 11:39,0.000,
    Until: 11:41,1.000,
    Until: 12:26,0.048,
    Until: 12:31,1.000,
    Until: 21:32,0.000,
    Until: 21:34,1.000,
    Until: 22:19,0.048,
    Until: 22:24,1.000,
    Until: 22:30,0.000,
    Until: 22:32,1.000,
    Until: 23:17,0.048,
    Until: 23:22,1.000,
    Until: 23:23,0.000,
    Until: 23:25,1.000,
    Until: 24:00,0.048,
    Through: 1/31,
    For: AllDays,
    Until: 00:10,0.048,
    Until: 00:15,1.000,
    Until: 24:00,0.000,
    Through: 2/1,
    For: AllDays,
    Until: 24:00,0.000,
    Through: 2/2,
    For: AllDays,
    Until: 12:19,0.000,
    Until: 12:21,1.000,
    Until: 13:06,0.048,
    Until: 13:11,1.000,
    Until: 16:40,0.000,
    Until: 16:42,1.000,
    Until: 17:27,0.048,
    Until: 17:32,1.000,
    Until: 22:02,0.000,
    Until: 22:04,1.000,
    Until: 22:49,0.048,
    Until: 22:54,1.000,
    Until: 24:00,0.000,
    Through: 2/3,
    For: AllDays,
    Until: 10:35,0.000,
    Until: 10:37,1.000,
    Until: 11:22,0.048,
    Until: 11:27,1.000,
    Until: 11:56,0.000,
    Until: 11:58,1.000,
    Until: 12:43,0.048,
    Until: 12:48,1.000,
    Until: 15:48,0.000,
    Until: 15:50,1.000,
    Until: 16:35,0.048,
    Until: 16:40,1.000,
    Until: 18:11,0.000,
    Until: 18:13,1.000,
    Until: 18:58,0.048,
    Until: 19:03,1.000,
    Until: 22:22,0.000,
    Until: 22:24,1.000,
    Until: 23:09,0.048,
    Until: 23:14,1.000,
    Until: 24:00,0.000,
    Through: 2/4,
    For: AllDays,
    Until: 13:26,0.000,
    Until: 13:28,1.000,
    Until: 14:13,0.048,
    Until: 14:18,1.000,
    Until: 15:53,0.000,
    Until: 15:55,1.000,
    Until: 16:40,0.048,
    Until: 16:45,1.000,
    Until: 22:03,0.000,
    Until: 22:05,1.000,
    Until: 22:50,0.048,
    Until: 22:55,1.000,
    Until: 22:56,0.000,
    Until: 22:58,1.000,
    Until: 23:43,0.048,
    Until: 23:48,1.000,
    Until: 24:00,0.000,
    Through: 2/5,
    For: AllDays,
    Until: 11:29,0.000,
    Until: 11:31,1.000,
    Until: 12:16,0.048,
    Until: 12:21,1.000,
    Until: 12:55,0.000,
    Until: 12:57,1.000,
    Until: 13:42,0.048,
    Until: 13:47,1.000,
    Until: 17:57,0.000,
    Until: 17:59,1.000,
    Until: 18:44,0.048,
    Until: 18:49,1.000,
    Until: 21:32,0.000,
    Until: 21:34,1.000,
    Until: 22:19,0.048,
    Until: 22:24,1.000,
    Until: 22:44,0.000,
    Until: 22:46,1.000,
    Until: 23:31,0.048,
    Until: 23:36,1.000,
    Until: 24:00,0.000,
    Through: 2/6,
    For: AllDays,
    Until: 10:29,0.000,
    Until: 10:31,1.000,
    Until: 11:16,0.048,
    Until: 11:21,1.000,
    Until: 12:57,0.000,
    Until: 12:59,1.000,
    Until: 13:44,0.048,
    Until: 13:49,1.000,
    Until: 16:19,0.000,
    Until: 16:21,1.000,
    Until: 17:06,0.048,
    Until: 17:11,1.000,
    Until: 18:51,0.000,
    Until: 18:53,1.000,
    Until: 19:38,0.048,
    Until: 19:43,1.000,
    Until: 21:28,0.000,
    Until: 21:30,1.000,
    Until: 22:15,0.048,
    Until: 22:20,1.000,
    Until: 22:53,0.000,
    Until: 22:55,1.000,
    Until: 23:40,0.048,
    Until: 23:45,1.000,
    Until: 23:46,0.000,
    Until: 23:48,1.000,
    Until: 24:00,0.048,
    Through: 2/7,
    For: AllDays,
    Until: 00:33,0.048,
    Until: 00:38,1.000,
    Until: 24:00,0.000,
    Through: 2/8,
    For: AllDays,
    Until: 24:00,0.000,
    Through: 2/9,
    For: AllDays,
    Until: 08:26,0.000,
    Until: 08:28,1.000,
    Until: 09:13,0.048,
    Until: 09:18,1.000,
    Until: 10:10,0.000,
    Until: 10:12,1.000,
    Until: 10:57,0.048,
    Until: 11:02,1.000,
    Until: 16:47,0.000,
    Until: 16:49,1.000,
    Until: 17:34,0.048,
    Until: 17:39,1.000,
    Until: 18:48,0.000,
    Until: 18:50,1.000,
    Until: 19:35,0.048,
    Until: 19:40,1.000,
    Until: 21:29,0.000,
    Until: 21:31,1.000,
    Until: 22:16,0.048,
    Until: 22:21,1.000,
    Until: 22:53,0.000,
    Until: 22:55,1.000,
    Until: 23:40,0.048,
    Until: 23:45,1.000,
    Until: 24:00,0.000,
    Through: 2/10,
    For: AllDays,
    Until: 07:00,0.000,
    Until: 07:02,1.000,
    Until: 07:47,0.048,
    Until: 07:52,1.000,
    Until: 10:47,0.000,
    Until: 10:49,1.000,
    Until: 11:34,0.048,
    Until: 11:39,1.000,
    Until: 19:57,0.000,
    Until: 19:59,1.000,
    Until: 20:44,0.048,
    Until: 20:49,1.000,
    Until: 21:37,0.000,
    Until: 21:39,1.000,
    Until: 22:24,0.048,
    Until: 22:29,1.000,
    Until: 24:00,0.000,
    Through: 2/11,
    For: AllDays,
    Until: 07:22,0.000,
    Until: 07:24,1.000,
    Until: 08:09,0.048,
    Until: 08:14,1.000,
    Until: 11:19,0.000,
    Until: 11:21,1.000,
    Until: 12:06,0.048,
    Until: 12:11,1.000,
    Until: 14:39,0.000,
    Until: 14:41,1.000,
    Until: 15:26,0.048,
    Until: 15:31,1.000,
    Until: 17:37,0.000,
    Until: 17:39,1.000,
    Until: 18:24,0.048,
    Until: 18:29,1.000,
    Until: 21:32,0.000,
    Until: 21:34,1.000,
    Until: 22:19,0.048,
    Until: 22:24,1.000,
    Until: 22:25,0.000,
    Until: 22:27,1.000,
    Until: 23:12,0.048,
    Until: 23:17,1.000,
    Until: 24:00,0.000,
    Through: 2/12,
    For: AllDays,
    Until: 07:24,0.000,
    Until: 07:26,1.000,
    Until: 08:11,0.048,
    Until: 08:16,1.000,
    Until: 10:27,0.000,
    Until: 10:29,1.000,
    Until: 11:14,0.048,
    Until: 11:19,1.000,
    Until: 12:18,0.000,
    Until: 12:20,1.000,
    Until: 13:05,0.048,
    Until: 13:10,1.000,
    Until: 21:36,0.000,
    Until: 21:38,1.000,
    Until: 22:23,0.048,
    Until: 22:28,1.000,
    Until: 24:00,0.000,
    Through: 2/13,
    For: AllDays,
    Until: 08:10,0.000,
    Until: 08:12,1.000,
    Until: 08:57,0.048,
    Until: 09:02,1.000,
    Until: 11:46,0.000,
    Until: 11:48,1.000,
    Until: 12:33,0.048,
    Until: 12:38,1.000,
    Until: 17:47,0.000,
    Until: 17:49,1.000,
    Until: 18:34,0.048,
    Until: 18:39,1.000,
    Until: 20:17,0.000,
    Until: 20:19,1.000,
    Until: 21:04,0.048,
    Until: 21:09,1.000,
    Until: 21:10,0.000,
    Until: 21:12,1.000,
    Until: 21:57,0.048,
    Until: 22:02,1.000,
    Until: 22:22,0.000,
    Until: 22:24,1.000,
    Until: 23:09,0.048,
    Until: 23:14,1.000,
    Until: 24:00,0.000,
    Through: 2/14,
    For: AllDays,
    Until: 24:00,0.000,
    Through: 2/15,
    For: AllDays,
    Until: 24:00,0.000,
    Through: 2/16,
    For: AllDays,
    Until: 07:31,0.000,
    Until: 07:33,1.000,
    Until: 08:18,0.048,
    Until: 08:23,1.000,
    Until: 10:26,0.000,
    Until: 10:28,1.000,
    Until: 11:13,0.048,
    Until: 11:18,1.000,
    Until: 11:33,0.000,
    Until: 11:35,1.000,
    Until: 12:20,0.048,
    Until: 12:25,1.000,
    Until: 16:08,0.000,
    Until: 16:10,1.000,
    Until: 16:55,0.048,
    Until: 17:00,1.000,
    Until: 21:05,0.000,
    Until: 21:07,1.000,
    Until: 21:52,0.048,
    Until: 21:57,1.000,
    Until: 21:58,0.000,
    Until: 22:00,1.000,
    Until: 22:45,0.048,
    Until: 22:50,1.000,
    Until: 22:58,0.000,
    Until: 23:00,1.000,
    Until: 23:45,0.048,
    Until: 23:50,1.000,
    Until: 24:00,0.000,
    Through: 2/17,
    For: AllDays,
    Until: 12:13,0.000,
    Until: 12:15,1.000,
    Until: 13:00,0.048,
    Until: 13:05,1.000,
    Until: 21:02,0.000,
    Until: 21:04,1.000,
    Until: 21:49,0.048,
    Until: 21:54,1.000,
    Until: 21:58,0.000,
    Until: 22:00,1.000,
    Until: 22:45,0.048,
    Until: 22:50,1.000,
    Until: 24:00,0.000,
    Through: 2/18,
    For: AllDays,
    Until: 11:54,0.000,
    Until: 11:56,1.000,
    Until: 12:41,0.048,
    Until: 12:46,1.000,
    Until: 13:14,0.000,
    Until: 13:16,1.000,
    Until: 14:01,0.048,
    Until: 14:06,1.000,
    Until: 16:05,0.000,
    Until: 16:07,1.000,
    Until: 16:52,0.048,
    Until: 16:57,1.000,
    Until: 21:31,0.000,
    Until: 21:33,1.000,
    Until: 22:18,0.048,
    Until: 22:23,1.000,
    Until: 22:38,0.000,
    Until: 22:40,1.000,
    Until: 23:25,0.048,
    Until: 23:30,1.000,
    Until: 23:48,0.000,
    Until: 23:50,1.000,
    Until: 24:00,0.048,
    Through: 2/19,
    For: AllDays,
    Until: 00:35,0.048,
    Until: 00:40,1.000,
    Until: 11:03,0.000,
    Until: 11:05,1.000,
    Until: 11:50,0.048,
    Until: 11:55,1.000,
    Until: 16:50,0.000,
    Until: 16:52,1.000,
    Until: 17:37,0.048,
    Until: 17:42,1.000,
    Until: 20:24,0.000,
    Until: 20:26,1.000,
    Until: 21:11,0.048,
    Until: 21:16,1.000,
    Until: 21:21,0.000,
    Until: 21:23,1.000,
    Until: 22:08,0.048,
    Until: 22:13,1.000,
    Until: 24:00,0.000,
    Through: 2/20,
    For: AllDays,
    Until: 11:04,0.000,
    Until: 11:06,1.000,
    Until: 11:51,0.048,
    Until: 11:56,1.000,
    Until: 12:03,0.000,
    Until: 12:05,1.000,
    Until: 12:50,0.048,
    Until: 12:55,1.000,
    Until: 18:42,0.000,
    Until: 18:44,1.000,
    Until: 19:29,0.048,
    Until: 19:34,1.000,
    Until: 20:49,0.000,
    Until: 20:51,1.000,
    Until: 21:36,0.048,
    Until: 21:41,1.000,
    Until: 22:41,0.000,
    Until: 22:43,1.000,
    Until: 23:28,0.048,
    Until: 23:33,1.000,
    Until: 24:00,0.000,
    Through: 2/21,
    For: AllDays,
    Until: 24:00,0.000,
    Through: 2/22,
    For: AllDays,
    Until: 24:00,0.000,
    Through: 2/23,
    For: AllDays,
    Until: 13:37,0.000,
    Until: 13:39,1.000,
    Until: 14:24,0.048,
    Until: 14:29,1.000,
    Until: 21:55,0.000,
    Until: 21:57,1.000,
    Until: 22:42,0.048,
    Until: 22:47,1.000,
    Until: 24:00,0.000,
    Through: 2/24,
    For: AllDays,
    Until: 10:59,0.000,
    Until: 11:01,1.000,
    Until: 11:46,0.048,
    Until: 11:51,1.000,
    Until: 16:23,0.000,
    Until: 16:25,1.000,
    Until: 17:10,0.048,
    Until: 17:15,1.000,
    Until: 20:11,0.000,
    Until: 20:13,1.000,
    Until: 20:58,0.048,
    Until: 21:03,1.000,
    Until: 23:00,0.000,
    Until: 23:02,1.000,
    Until: 23:47,0.048,
    Until: 23:52,1.000,
    Until: 24:00,0.000,
    Through: 2/25,
    For: AllDays,
    Until: 11:24,0.000,
    Until: 11:26,1.000,
    Until: 12:11,0.048,
    Until: 12:16,1.000,
    Until: 12:51,0.000,
    Until: 12:53,1.000,
    Until: 13:38,0.048,
    Until: 13:43,1.000,
    Until: 21:47,0.000,
    Until: 21:49,1.000,
    Until: 22:34,0.048,
    Until: 22:39,1.000,
    Until: 22:40,0.000,
    Until: 22:42,1.000,
    Until: 23:27,0.048,
    Until: 23:32,1.000,
    Until: 24:00,0.000,
    Through: 2/26,
    For: AllDays,
    Until: 13:19,0.000,
    Until: 13:21,1.000,
    Until: 14:06,0.048,
    Until: 14:11,1.000,
    Until: 16:56,0.000,
    Until: 16:58,1.000,
    Until: 17:43,0.048,
    Until: 17:48,1.000,
    Until: 21:13,0.000,
    Until: 21:15,1.000,
    Until: 22:00,0.048,
    Until: 22:05,1.000,
    Until: 22:11,0.000,
    Until: 22:13,1.000,
    Until: 22:58,0.048,
    Until: 23:03,1.000,
    Until: 24:00,0.000,
    Through: 2/27,
    For: AllDays,
    Until: 06:30,0.000,
    Until: 06:32,1.000,
    Until: 07:17,0.048,
    Until: 07:22,1.000,
    Until: 11:43,0.000,
    Until: 11:45,1.000,
    Until: 12:30,0.048,
    Until: 12:35,1.000,
    Until: 16:20,0.000,
    Until: 16:22,1.000,
    Until: 17:07,0.048,
    Until: 17:12,1.000,
    Until: 17:51,0.000,
    Until: 17:53,1.000,
    Until: 18:38,0.048,
    Until: 18:43,1.000,
    Until: 22:28,0.000,
    Until: 22:30,1.000,
    Until: 23:15,0.048,
    Until: 23:20,1.000,
    Until: 23:21,0.000,
    Until: 23:23,1.000,
    Until: 24:00,0.048,
    Through: 2/28,
    For: AllDays,
    Until: 00:08,0.048,
    Until: 00:13,1.000,
    Until: 24:00,0.000,
    Through: 3/1,
    For: AllDays,
    Until: 24:00,0.000,
    Through: 3/2,
    For: AllDays,
    Until: 14:15,0.000,
    Until: 14:17,1.000,
    Until: 15:02,0.048,
    Until: 15:07,1.000,
    Until: 16:57,0.000,
    Until: 16:59,1.000,
    Until: 17:44,0.048,
    Until: 17:49,1.000,
    Until: 21:57,0.000,
    Until: 21:59,1.000,
    Until: 22:44,0.048,
    Until: 22:49,1.000,
    Until: 24:00,0.000,
    Through: 3/3,
    For: AllDays,
    Until: 10:13,0.000,
    Until: 10:15,1.000,
    Until: 11:00,0.048,
    Until: 11:05,1.000,
    Until: 14:04,0.000,
    Until: 14:06,1.000,
    Until: 14:51,0.048,
    Until: 14:56,1.000,
    Until: 17:18,0.000,
    Until: 17:20,1.000,
    Until: 18:05,0.048,
    Until: 18:10,1.000,
    Until: 21:55,0.000,
    Until: 21:57,1.000,
    Until: 22:42,0.048,
    Until: 22:47,1.000,
    Until: 24:00,0.000,
    Through: 3/4,
    For: AllDays,
    Until: 10:39,0.000,
    Until: 10:41,1.000,
    Until: 11:26,0.048,
    Until: 11:31,1.000,
    Until: 13:12,0.000,
    Until: 13:14,1.000,
    Until: 13:59,0.048,
    Until: 14:04,1.000,
    Until: 17:44,0.000,
    Until: 17:46,1.000,
    Until: 18:31,0.048,
    Until: 18:36,1.000,
    Until: 20:00,0.000,
    Until: 20:02,1.000,
    Until: 20:47,0.048,
    Until: 20:52,1.000,
    Until: 21:25,0.000,
    Until: 21:27,1.000,
    Until: 22:12,0.048,
    Until: 22:17,1.000,
    Until: 22:50,0.000,
    Until: 22:52,1.000,
    Until: 23:37,0.048,
    Until: 23:42,1.000,
    Until: 24:00,0.000,
    Through: 3/5,
    For: AllDays,
    Until: 11:49,0.000,
    Until: 11:51,1.000,
    Until: 12:36,0.048,
    Until: 12:41,1.000,
    Until: 12:59,0.000,
    Until: 13:01,1.000,
    Until: 13:46,0.048,
    Until: 13:51,1.000,
    Until: 20:22,0.000,
    Until: 20:24,1.000,
    Until: 21:09,0.048,
    Until: 21:14,1.000,
    Until: 22:59,0.000,
    Until: 23:01,1.000,
    Until: 23:46,0.048,
    Until: 23:51,1.000,
    Until: 24:00,0.000,
    Through: 3/6,
    For: AllDays,
    Until: 07:50,0.000,
    Until: 07:52,1.000,
    Until: 08:37,0.048,
    Until: 08:42,1.000,
    Until: 11:21,0.000,
    Until: 11:23,1.000,
    Until: 12:08,0.048,
    Until: 12:13,1.000,
    Until: 16:53,0.000,
    Until: 16:55,1.000,
    Until: 17:40,0.048,
    Until: 17:45,1.000,
    Until: 20:51,0.000,
    Until: 20:53,1.000,
    Until: 21:38,0.048,
    Until: 21:43,1.000,
    Until: 21:57,0.000,
    Until: 21:59,1.000,
    Until: 22:44,0.048,
    Until: 22:49,1.000,
    Until: 24:00,0.000,
    Through: 3/7,
    For: AllDays,
    Until: 24:00,0.000,
    Through: 3/8,
    For: AllDays,
    Until: 24:00,0.000,
    Through: 3/9,
    For: AllDays,
    Until: 06:14,0.000,
    Until: 06:16,1.000,
    Until: 07:01,0.048,
    Until: 07:06,1.000,
    Until: 11:32,0.000,
    Until: 11:34,1.000,
    Until: 12:19,0.048,
    Until: 12:24,1.000,
    Until: 17:24,0.000,
    Until: 17:26,1.000,
    Until: 18:11,0.048,
    Until: 18:16,1.000,
    Until: 20:32,0.000,
    Until: 20:34,1.000,
    Until: 21:19,0.048,
    Until: 21:24,1.000,
    Until: 22:31,0.000,
    Until: 22:33,1.000,
    Until: 23:18,0.048,
    Until: 23:23,1.000,
    Until: 24:00,0.000,
    Through: 3/10,
    For: AllDays,
    Until: 11:32,0.000,
    Until: 11:34,1.000,
    Until: 12:19,0.048,
    Until: 12:24,1.000,
    Until: 12:45,0.000,
    Until: 12:47,1.000,
    Until: 13:32,0.048,
    Until: 13:37,1.000,
    Until: 21:14,0.000,
    Until: 21:16,1.000,
    Until: 22:01,0.048,
    Until: 22:06,1.000,
    Until: 23:22,0.000,
    Until: 23:24,1.000,
    Until: 24:00,0.048,
    Through: 3/11,
    For: AllDays,
    Until: 00:09,0.048,
    Until: 00:14,1.000,
    Until: 06:53,0.000,
    Until: 06:55,1.000,
    Until: 07:40,0.048,
    Until: 07:45,1.000,
    Until: 12:42,0.000,
    Until: 12:44,1.000,
    Until: 13:29,0.048,
    Until: 13:34,1.000,
    Until: 13:39,0.000,
    Until: 13:41,1.000,
    Until: 14:26,0.048,
    Until: 14:31,1.000,
    Until: 19:46,0.000,
    Until: 19:48,1.000,
    Until: 20:33,0.048,
    Until: 20:38,1.000,
    Until: 21:17,0.000,
    Until: 21:19,1.000,
    Until: 22:04,0.048,
    Until: 22:09,1.000,
    Until: 24:00,0.000,
    Through: 3/12,
    For: AllDays,
    Until: 13:11,0.000,
    Until: 13:13,1.000,
    Until: 13:58,0.048,
    Until: 14:03,1.000,
    Until: 18:54,0.000,
    Until: 18:56,1.000,
    Until: 19:41,0.048,
    Until: 19:46,1.000,
    Until: 21:10,0.000,
    Until: 21:12,1.000,
    Until: 21:57,0.048,
    Until: 22:02,1.000,
    Until: 22:42,0.000,
    Until: 22:44,1.000,
    Until: 23:29,0.048,
    Until: 23:34,1.000,
    Until: 24:00,0.000,
    Through: 3/13,
    For: AllDays,
    Until: 11:36,0.000,
    Until: 11:38,1.000,
    Until: 12:23,0.048,
    Until: 12:28,1.000,
    Until: 17:21,0.000,
    Until: 17:23,1.000,
    Until: 18:08,0.048,
    Until: 18:13,1.000,
    Until: 21:04,0.000,
    Until: 21:06,1.000,
    Until: 21:51,0.048,
    Until: 21:56,1.000,
    Until: 21:57,0.000,
    Until: 21:59,1.000,
    Until: 22:44,0.048,
    Until: 22:49,1.000,
    Until: 22:53,0.000,
    Until: 22:55,1.000,
    Until: 23:40,0.048,
    Until: 23:45,1.000,
    Until: 24:00,0.000,
    Through: 3/14,
    For: AllDays,
    Until: 24:00,0.000,
    Through: 3/15,
    For: AllDays,
    Until: 24:00,0.000,
    Through: 3/16,
    For: AllDays,
    Until: 07:08,0.000,
    Until: 07:10,1.000,
    Until: 07:55,0.048,
    Until: 08:00,1.000,
    Until: 11:29,0.000,
    Until: 11:31,1.000,
    Until: 12:16,0.048,
    Until: 12:21,1.000,
    Until: 21:56,0.000,
    Until: 21:58,1.000,
    Until: 22:43,0.048,
    Until: 22:48,1.000,
    Until: 24:00,0.000,
    Through: 3/17,
    For: AllDays,
    Until: 05:50,0.000,
    Until: 05:52,1.000,
    Until: 06:37,0.048,
    Until: 06:42,1.000,
    Until: 20:52,0.000,
    Until: 20:54,1.000,
    Until: 21:39,0.048,
    Until: 21:44,1.000,
    Until: 22:34,0.000,
    Until: 22:36,1.000,
    Until: 23:21,0.048,
    Until: 23:26,1.000,
    Until: 24:00,0.000,
    Through: 3/18,
    For: AllDays,
    Until: 09:11,0.000,
    Until: 09:13,1.000,
    Until: 09:58,0.048,
    Until: 10:03,1.000,
    Until: 11:23,0.000,
    Until: 11:25,1.000,
    Until: 12:10,0.048,
    Until: 12:15,1.000,
    Until: 14:48,0.000,
    Until: 14:50,1.000,
    Until: 15:35,0.048,
    Until: 15:40,1.000,
    Until: 20:46,0.000,
    Until: 20:48,1.000,
    Until: 21:33,0.048,
    Until: 21:38,1.000,
    Until: 21:52,0.000,
    Until: 21:54,1.000,
    Until: 22:39,0.048,
    Until: 22:44,1.000,
    Until: 22:51,0.000,
    Until: 22:53,1.000,
    Until: 23:38,0.048,
    Until: 23:43,1.000,
    Until: 24:00,0.000,
    Through: 3/19,
    For: AllDays,
    Until: 13:09,0.000,
    Until: 13:11,1.000,
    Until: 13:56,0.048,
    Until: 14:01,1.000,
    Until: 16:24,0.000,
    Until: 16:26,1.000,
    Until: 17:11,0.048,
    Until: 17:16,1.000,
    Until: 22:53,0.000,
    Until: 22:55,1.000,
    Until: 23:40,0.048,
    Until: 23:45,1.000,
    Until: 24:00,0.000,
    Through: 3/20,
    For: AllDays,
    Until: 13:36,0.000,
    Until: 13:38,1.000,
    Until: 14:23,0.048,
    Until: 14:28,1.000,
    Until: 17:10,0.000,
    Until: 17:12,1.000,
    Until: 17:57,0.048,
    Until: 18:02,1.000,
    Until: 19:46,0.000,
    Until: 19:48,1.000,
    Until: 20:33,0.048,
    Until: 20:38,1.000,
    Until: 23:39,0.000,
    Until: 23:41,1.000,
    Until: 24:00,0.048,
    Through: 3/21,
    For: AllDays,
    Until: 00:26,0.048,
    Until: 00:31,1.000,
    Until: 24:00,0.000,
    Through: 3/22,
    For: AllDays,
    Until: 24:00,0.000,
    Through: 3/23,
    For: AllDays,
    Until: 06:18,0.000,
    Until: 06:20,1.000,
    Until: 07:05,0.048,
    Until: 07:10,1.000,
    Until: 11:28,0.000,
    Until: 11:30,1.000,
    Until: 12:15,0.048,
    Until: 12:20,1.000,
    Until: 12:40,0.000,
    Until: 12:42,1.000,
    Until: 13:27,0.048,
    Until: 13:32,1.000,
    Until: 16:23,0.000,
    Until: 16:25,1.000,
    Until: 17:10,0.048,
    Until: 17:15,1.000,
    Until: 22:21,0.000,
    Until: 22:23,1.000,
    Until: 23:08,0.048,
    Until: 23:13,1.000,
    Until: 24:00,0.000,
    Through: 3/24,
    For: AllDays,
    Until: 11:41,0.000,
    Until: 11:43,1.000,
    Until: 12:28,0.048,
    Until: 12:33,1.000,
    Until: 21:09,0.000,
    Until: 21:11,1.000,
    Until: 21:56,0.048,
    Until: 22:01,1.000,
    Until: 22:28,0.000,
    Until: 22:30,1.000,
    Until: 23:15,0.048,
    Until: 23:20,1.000,
    Until: 24:00,0.000,
    Through: 3/25,
    For: AllDays,
    Until: 12:42,0.000,
    Until: 12:44,1.000,
    Until: 13:29,0.048,
    Until: 13:34,1.000,
    Until: 17:02,0.000,
    Until: 17:04,1.000,
    Until: 17:49,0.048,
    Until: 17:54,1.000,
    Until: 20:52,0.000,
    Until: 20:54,1.000,
    Until: 21:39,0.048,
    Until: 21:44,1.000,
    Until: 21:45,0.000,
    Until: 21:47,1.000,
    Until: 22:32,0.048,
    Until: 22:37,1.000,
    Until: 24:00,0.000,
    Through: 3/26,
    For: AllDays,
    Until: 11:30,0.000,
    Until: 11:32,1.000,
    Until: 12:17,0.048,
    Until: 12:22,1.000,
    Until: 16:55,0.000,
    Until: 16:57,1.000,
    Until: 17:42,0.048,
    Until: 17:47,1.000,
    Until: 19:41,0.000,
    Until: 19:43,1.000,
    Until: 20:28,0.048,
    Until: 20:33,1.000,
    Until: 21:06,0.000,
    Until: 21:08,1.000,
    Until: 21:53,0.048,
    Until: 21:58,1.000,
    Until: 24:00,0.000,
    Through: 3/27,
    For: AllDays,
    Until: 11:47,0.000,
    Until: 11:49,1.000,
    Until: 12:34,0.048,
    Until: 12:39,1.000,
    Until: 16:52,0.000,
    Until: 16:54,1.000,
    Until: 17:39,0.048,
    Until: 17:44,1.000,
    Until: 19:54,0.000,
    Until: 19:56,1.000,
    Until: 20:41,0.048,
    Until: 20:46,1.000,
    Until: 24:00,0.000,
    Through: 3/28,
    For: AllDays,
    Until: 24:00,0.000,
    Through: 3/29,
    For: AllDays,
    Until: 24:00,0.000,
    Through: 3/30,
    For: AllDays,
    Until: 05:31,0.000,
    Until: 05:33,1.000,
    Until: 06:18,0.048,
    Until: 06:23,1.000,
    Until: 12:29,0.000,
    Until: 12:31,1.000,
    Until: 13:16,0.048,
    Until: 13:21,1.000,
    Until: 15:41,0.000,
    Until: 15:43,1.000,
    Until: 16:28,0.048,
    Until: 16:33,1.000,
    Until: 20:25,0.000,
    Until: 20:27,1.000,
    Until: 21:12,0.048,
    Until: 21:17,1.000,
    Until: 23:11,0.000,
    Until: 23:13,1.000,
    Until: 23:58,0.048,
    Until: 24:00,1.000,
    Through: 3/31,
    For: AllDays,
    Until: 00:03,1.000,
    Until: 12:25,0.000,
    Until: 12:27,1.000,
    Until: 13:12,0.048,
    Until: 13:17,1.000,
    Until: 22:05,0.000,
    Until: 22:07,1.000,
    Until: 22:52,0.048,
    Until: 22:57,1.000,
    Until: 24:00,0.000,
    Through: 4/1,
    For: AllDays,
    Until: 10:13,0.000,
    Until: 10:15,1.000,
    Until: 11:00,0.048,
    Until: 11:05,1.000,
    Until: 11:36,0.000,
    Until: 11:38,1.000,
    Until: 12:23,0.048,
    Until: 12:28,1.000,
    Until: 13:03,0.000,
    Until: 13:05,1.000,
    Until: 13:50,0.048,
    Until: 13:55,1.000,
    Until: 15:22,0.000,
    Until: 15:24,1.000,
    Until: 16:09,0.048,
    Until: 16:14,1.000,
    Until: 20:01,0.000,
    Until: 20:03,1.000,
    Until: 20:48,0.048,
    Until: 20:53,1.000,
    Until: 22:08,0.000,
    Until: 22:10,1.000,
    Until: 22:55,0.048,
    Until: 23:00,1.000,
    Until: 23:01,0.000,
    Until: 23:03,1.000,
    Until: 23:48,0.048,
    Until: 23:53,1.000,
    Until: 24:00,0.000,
    Through: 4/2,
    For: AllDays,
    Until: 07:24,0.000,
    Until: 07:26,1.000,
    Until: 08:11,0.048,
    Until: 08:16,1.000,
    Until: 12:40,0.000,
    Until: 12:42,1.000,
    Until: 13:27,0.048,
    Until: 13:32,1.000,
    Until: 15:08,0.000,
    Until: 15:10,1.000,
    Until: 15:55,0.048,
    Until: 16:00,1.000,
    Until: 17:28,0.000,
    Until: 17:30,1.000,
    Until: 18:15,0.048,
    Until: 18:20,1.000,
    Until: 22:34,0.000,
    Until: 22:36,1.000,
    Until: 23:21,0.048,
    Until: 23:26,1.000,
    Until: 24:00,0.000,
    Through: 4/3,
    For: AllDays,
    Until: 12:23,0.000,
    Until: 12:25,1.000,
    Until: 13:10,0.048,
    Until: 13:15,1.000,
    Until: 16:44,0.000,
    Until: 16:46,1.000,
    Until: 17:31,0.048,
    Until: 17:36,1.000,
    Until: 19:42,0.000,
    Until: 19:44,1.000,
    Until: 20:29,0.048,
    Until: 20:34,1.000,
    Until: 22:30,0.000,
    Until: 22:32,1.000,
    Until: 23:17,0.048,
    Until: 23:22,1.000,
    Until: 24:00,0.000,
    Through: 4/4,
    For: AllDays,
    Until: 24:00,0.000,
    Through: 4/5,
    For: AllDays,
    Until: 24:00,0.000,
    Through: 4/6,
    For: AllDays,
    Until: 08:52,0.000,
    Until: 08:54,1.000,
    Until: 09:39,0.048,
    Until: 09:44,1.000,
    Until: 11:55,0.000,
    Until: 11:57,1.000,
    Until: 12:42,0.048,
    Until: 12:47,1.000,
    Until: 19:31,0.000,
    Until: 19:33,1.000,
    Until: 20:18,0.048,
    Until: 20:23,1.000,
    Until: 22:16,0.000,
    Until: 22:18,1.000,
    Until: 23:03,0.048,
    Until: 23:08,1.000,
    Until: 23:19,0.000,
    Until: 23:21,1.000,
    Until: 24:00,0.048,
    Through: 4/7,
    For: AllDays,
    Until: 00:06,0.048,
    Until: 00:11,1.000,
    Until: 06:57,0.000,
    Until: 06:59,1.000,
    Until: 07:44,0.048,
    Until: 07:49,1.000,
    Until: 12:42,0.000,
    Until: 12:44,1.000,
    Until: 13:29,0.048,
    Until: 13:34,1.000,
    Until: 18:12,0.000,
    Until: 18:14,1.000,
    Until: 18:59,0.048,
    Until: 19:04,1.000,
    Until: 21:33,0.000,
    Until: 21:35,1.000,
    Until: 22:20,0.048,
    Until: 22:25,1.000,
    Until: 23:03,0.000,
    Until: 23:05,1.000,
    Until: 23:50,0.048,
    Until: 23:55,1.000,
    Until: 24:00,0.000,
    Through: 4/8,
    For: AllDays,
    Until: 07:15,0.000,
    Until: 07:17,1.000,
    Until: 08:02,0.048,
    Until: 08:07,1.000,
    Until: 12:59,0.000,
    Until: 13:01,1.000,
    Until: 13:46,0.048,
    Until: 13:51,1.000,
    Until: 16:36,0.000,
    Until: 16:38,1.000,
    Until: 17:23,0.048,
    Until: 17:28,1.000,
    Until: 20:26,0.000,
    Until: 20:28,1.000,
    Until: 21:13,0.048,
    Until: 21:18,1.000,
    Until: 21:34,0.000,
    Until: 21:36,1.000,
    Until: 22:21,0.048,
    Until: 22:26,1.000,
    Until: 24:00,0.000,
    Through: 4/9,
    For: AllDays,
    Until: 12:19,0.000,
    Until: 12:21,1.000,
    Until: 13:06,0.048,
    Until: 13:11,1.000,
    Until: 18:11,0.000,
    Until: 18:13,1.000,
    Until: 18:58,0.048,
    Until: 19:03,1.000,
    Until: 19:54,0.000,
    Until: 19:56,1.000,
    Until: 20:41,0.048,
    Until: 20:46,1.000,
    Until: 20:58,0.000,
    Until: 21:00,1.000,
    Until: 21:45,0.048,
    Until: 21:50,1.000,
    Until: 24:00,0.000,
    Through: 4/10,
    For: AllDays,
    Until: 07:04,0.000,
    Until: 07:06,1.000,
    Until: 07:51,0.048,
    Until: 07:56,1.000,
    Until: 08:41,0.000,
    Until: 08:43,1.000,
    Until: 09:28,0.048,
    Until: 09:33,1.000,
    Until: 12:35,0.000,
    Until: 12:37,1.000,
    Until: 13:22,0.048,
    Until: 13:27,1.000,
    Until: 13:28,0.000,
    Until: 13:30,1.000,
    Until: 14:15,0.048,
    Until: 14:20,1.000,
    Until: 20:36,0.000,
    Until: 20:38,1.000,
    Until: 21:23,0.048,
    Until: 21:28,1.000,
    Until: 21:53,0.000,
    Until: 21:55,1.000,
    Until: 22:40,0.048,
    Until: 22:45,1.000,
    Until: 22:58,0.000,
    Until: 23:00,1.000,
    Until: 23:45,0.048,
    Until: 23:50,1.000,
    Until: 24:00,0.000,
    Through: 4/11,
    For: AllDays,
    Until: 24:00,0.000,
    Through: 4/12,
    For: AllDays,
    Until: 24:00,0.000,
    Through: 4/13,
    For: AllDays,
    Until: 11:24,0.000,
    Until: 11:26,1.000,
    Until: 12:11,0.048,
    Until: 12:16,1.000,
    Until: 12:50,0.000,
    Until: 12:52,1.000,
    Until: 13:37,0.048,
    Until: 13:42,1.000,
    Until: 17:15,0.000,
    Until: 17:17,1.000,
    Until: 18:02,0.048,
    Until: 18:07,1.000,
    Until: 21:23,0.000,
    Until: 21:25,1.000,
    Until: 22:10,0.048,
    Until: 22:15,1.000,
    Until: 22:17,0.000,
    Until: 22:19,1.000,
    Until: 23:04,0.048,
    Until: 23:09,1.000,
    Until: 24:00,0.000,
    Through: 4/14,
    For: AllDays,
    Until: 06:09,0.000,
    Until: 06:11,1.000,
    Until: 06:56,0.048,
    Until: 07:01,1.000,
    Until: 10:56,0.000,
    Until: 10:58,1.000,
    Until: 11:43,0.048,
    Until: 11:48,1.000,
    Until: 12:06,0.000,
    Until: 12:08,1.000,
    Until: 12:53,0.048,
    Until: 12:58,1.000,
    Until: 15:55,0.000,
    Until: 15:57,1.000,
    Until: 16:42,0.048,
    Until: 16:47,1.000,
    Until: 21:56,0.000,
    Until: 21:58,1.000,
    Until: 22:43,0.048,
    Until: 22:48,1.000,
    Until: 22:50,0.000,
    Until: 22:52,1.000,
    Until: 23:37,0.048,
    Until: 23:42,1.000,
    Until: 24:00,0.000,
    Through: 4/15,
    For: AllDays,
    Until: 10:57,0.000,
    Until: 10:59,1.000,
    Until: 11:44,0.048,
    Until: 11:49,1.000,
    Until: 18:13,0.000,
    Until: 18:15,1.000,
    Until: 19:00,0.048,
    Until: 19:05,1.000,
    Until: 21:25,0.000,
    Until: 21:27,1.000,
    Until: 22:12,0.048,
    Until: 22:17,1.000,
    Until: 22:18,0.000,
    Until: 22:20,1.000,
    Until: 23:05,0.048,
    Until: 23:10,1.000,
    Until: 23:12,0.000,
    Until: 23:14,1.000,
    Until: 23:59,0.048,
    Until: 24:00,1.000,
    Through: 4/16,
    For: AllDays,
    Until: 00:04,1.000,
    Until: 10:32,0.000,
    Until: 10:34,1.000,
    Until: 11:19,0.048,
    Until: 11:24,1.000,
    Until: 12:34,0.000,
    Until: 12:36,1.000,
    Until: 13:21,0.048,
    Until: 13:26,1.000,
    Until: 17:04,0.000,
    Until: 17:06,1.000,
    Until: 17:51,0.048,
    Until: 17:56,1.000,
    Until: 19:45,0.000,
    Until: 19:47,1.000,
    Until: 20:32,0.048,
    Until: 20:37,1.000,
    Until: 22:42,0.000,
    Until: 22:44,1.000,
    Until: 23:29,0.048,
    Until: 23:34,1.000,
    Until: 24:00,0.000,
    Through: 4/17,
    For: AllDays,
    Until: 11:07,0.000,
    Until: 11:09,1.000,
    Until: 11:54,0.048,
    Until: 11:59,1.000,
    Until: 18:07,0.000,
    Until: 18:09,1.000,
    Until: 18:54,0.048,
    Until: 18:59,1.000,
    Until: 21:15,0.000,
    Until: 21:17,1.000,
    Until: 22:02,0.048,
    Until: 22:07,1.000,
    Until: 22:08,0.000,
    Until: 22:10,1.000,
    Until: 22:55,0.048,
    Until: 23:00,1.000,
    Until: 24:00,0.000,
    Through: 4/18,
    For: AllDays,
    Until: 24:00,0.000,
    Through: 4/19,
    For: AllDays,
    Until: 24:00,0.000,
    Through: 4/20,
    For: AllDays,
    Until: 12:57,0.000,
    Until: 12:59,1.000,
    Until: 13:44,0.048,
    Until: 13:49,1.000,
    Until: 18:36,0.000,
    Until: 18:38,1.000,
    Until: 19:23,0.048,
    Until: 19:28,1.000,
    Until: 19:52,0.000,
    Until: 19:54,1.000,
    Until: 20:39,0.048,
    Until: 20:44,1.000,
    Until: 22:03,0.000,
    Until: 22:05,1.000,
    Until: 22:50,0.048,
    Until: 22:55,1.000,
    Until: 24:00,0.000,
    Through: 4/21,
    For: AllDays,
    Until: 12:21,0.000,
    Until: 12:23,1.000,
    Until: 13:08,0.048,
    Until: 13:13,1.000,
    Until: 13:14,0.000,
    Until: 13:16,1.000,
    Until: 14:01,0.048,
    Until: 14:06,1.000,
    Until: 16:37,0.000,
    Until: 16:39,1.000,
    Until: 17:24,0.048,
    Until: 17:29,1.000,
    Until: 19:48,0.000,
    Until: 19:50,1.000,
    Until: 20:35,0.048,
    Until: 20:40,1.000,
    Until: 22:53,0.000,
    Until: 22:55,1.000,
    Until: 23:40,0.048,
    Until: 23:45,1.000,
    Until: 23:46,0.000,
    Until: 23:48,1.000,
    Until: 24:00,0.048,
    Through: 4/22,
    For: AllDays,
    Until: 00:33,0.048,
    Until: 00:38,1.000,
    Until: 05:57,0.000,
    Until: 05:59,1.000,
    Until: 06:44,0.048,
    Until: 06:49,1.000,
    Until: 11:34,0.000,
    Until: 11:36,1.000,
    Until: 12:21,0.048,
    Until: 12:26,1.000,
    Until: 13:49,0.000,
    Until: 13:51,1.000,
    Until: 14:36,0.048,
    Until: 14:41,1.000,
    Until: 16:50,0.000,
    Until: 16:52,1.000,
    Until: 17:37,0.048,
    Until: 17:42,1.000,
    Until: 18:14,0.000,
    Until: 18:16,1.000,
    Until: 19:01,0.048,
    Until: 19:06,1.000,
    Until: 21:44,0.000,
    Until: 21:46,1.000,
    Until: 22:31,0.048,
    Until: 22:36,1.000,
    Until: 22:37,0.000,
    Until: 22:39,1.000,
    Until: 23:24,0.048,
    Until: 23:29,1.000,
    Until: 24:00,0.000,
    Through: 4/23,
    For: AllDays,
    Until: 11:21,0.000,
    Until: 11:23,1.000,
    Until: 12:08,0.048,
    Until: 12:13,1.000,
    Until: 12:56,0.000,
    Until: 12:58,1.000,
    Until: 13:43,0.048,
    Until: 13:48,1.000,
    Until: 15:40,0.000,
    Until: 15:42,1.000,
    Until: 16:27,0.048,
    Until: 16:32,1.000,
    Until: 17:24,0.000,
    Until: 17:26,1.000,
    Until: 18:11,0.048,
    Until: 18:16,1.000,
    Until: 22:27,0.000,
    Until: 22:29,1.000,
    Until: 23:14,0.048,
    Until: 23:19,1.000,
    Until: 23:23,0.000,
    Until: 23:25,1.000,
    Until: 24:00,0.048,
    Through: 4/24,
    For: AllDays,
    Until: 00:10,0.048,
    Until: 00:15,1.000,
    Until: 07:48,0.000,
    Until: 07:50,1.000,
    Until: 08:35,0.048,
    Until: 08:40,1.000,
    Until: 13:43,0.000,
    Until: 13:45,1.000,
    Until: 14:30,0.048,
    Until: 14:35,1.000,
    Until: 15:29,0.000,
    Until: 15:31,1.000,
    Until: 16:16,0.048,
    Until: 16:21,1.000,
    Until: 20:06,0.000,
    Until: 20:08,1.000,
    Until: 20:53,0.048,
    Until: 20:58,1.000,
    Until: 21:58,0.000,
    Until: 22:00,1.000,
    Until: 22:45,0.048,
    Until: 22:50,1.000,
    Until: 22:55,0.000,
    Until: 22:57,1.000,
    Until: 23:42,0.048,
    Until: 23:47,1.000,
    Until: 24:00,0.000,
    Through: 4/25,
    For: AllDays,
    Until: 24:00,0.000,
    Through: 4/26,
    For: AllDays,
    Until: 24:00,0.000,
    Through: 4/27,
    For: AllDays,
    Until: 08:09,0.000,
    Until: 08:11,1.000,
    Until: 08:56,0.048,
    Until: 09:01,1.000,
    Until: 18:29,0.000,
    Until: 18:31,1.000,
    Until: 19:16,0.048,
    Until: 19:21,1.000,
    Until: 21:20,0.000,
    Until: 21:22,1.000,
    Until: 22:07,0.048,
    Until: 22:12,1.000,
    Until: 22:24,0.000,
    Until: 22:26,1.000,
    Until: 23:11,0.048,
    Until: 23:16,1.000,
    Until: 23:17,0.000,
    Until: 23:19,1.000,
    Until: 24:00,0.048,
    Through: 4/28,
    For: AllDays,
    Until: 00:04,0.048,
    Until: 00:09,1.000,
    Until: 12:04,0.000,
    Until: 12:06,1.000,
    Until: 12:51,0.048,
    Until: 12:56,1.000,
    Until: 13:36,0.000,
    Until: 13:38,1.000,
    Until: 14:23,0.048,
    Until: 14:28,1.000,
    Until: 17:59,0.000,
    Until: 18:01,1.000,
    Until: 18:46,0.048,
    Until: 18:51,1.000,
    Until: 20:43,0.000,
    Until: 20:45,1.000,
    Until: 21:30,0.048,
    Until: 21:35,1.000,
    Until: 21:57,0.000,
    Until: 21:59,1.000,
    Until: 22:44,0.048,
    Until: 22:49,1.000,
    Until: 22:55,0.000,
    Until: 22:57,1.000,
    Until: 23:42,0.048,
    Until: 23:47,1.000,
    Until: 24:00,0.000,
    Through: 4/29,
    For: AllDays,
    Until: 09:18,0.000,
    Until: 09:20,1.000,
    Until: 10:05,0.048,
    Until: 10:10,1.000,
    Until: 10:27,0.000,
    Until: 10:29,1.000,
    Until: 11:14,0.048,
    Until: 11:19,1.000,
    Until: 17:04,0.000,
    Until: 17:06,1.000,
    Until: 17:51,0.048,
    Until: 17:56,1.000,
    Until: 21:08,0.000,
    Until: 21:10,1.000,
    Until: 21:55,0.048,
    Until: 22:00,1.000,
    Until: 22:11,0.000,
    Until: 22:13,1.000,
    Until: 22:58,0.048,
    Until: 23:03,1.000,
    Until: 24:00,0.000,
    Through: 4/30,
    For: AllDays,
    Until: 10:54,0.000,
    Until: 10:56,1.000,
    Until: 11:41,0.048,
    Until: 11:46,1.000,
    Until: 11:51,0.000,
    Until: 11:53,1.000,
    Until: 12:38,0.048,
    Until: 12:43,1.000,
    Until: 20:34,0.000,
    Until: 20:36,1.000,
    Until: 21:21,0.048,
    Until: 21:26,1.000,
    Until: 22:26,0.000,
    Until: 22:28,1.000,
    Until: 23:13,0.048,
    Until: 23:18,1.000,
    Until: 24:00,0.000,
    Through: 5/1,
    For: AllDays,
    Until: 12:48,0.000,
    Until: 12:50,1.000,
    Until: 13:35,0.048,
    Until: 13:40,1.000,
    Until: 21:00,0.000,
    Until: 21:02,1.000,
    Until: 21:47,0.048,
    Until: 21:52,1.000,
    Until: 21:56,0.000,
    Until: 21:58,1.000,
    Until: 22:43,0.048,
    Until: 22:48,1.000,
    Until: 22:53,0.000,
    Until: 22:55,1.000,
    Until: 23:40,0.048,
    Until: 23:45,1.000,
    Until: 24:00,0.000,
    Through: 5/2,
    For: AllDays,
    Until: 24:00,0.000,
    Through: 5/3,
    For: AllDays,
    Until: 24:00,0.000,
    Through: 5/4,
    For: AllDays,
    Until: 12:28,0.000,
    Until: 12:30,1.000,
    Until: 13:15,0.048,
    Until: 13:20,1.000,
    Until: 13:21,0.000,
    Until: 13:23,1.000,
    Until: 14:08,0.048,
    Until: 14:13,1.000,
    Until: 21:05,0.000,
    Until: 21:07,1.000,
    Until: 21:52,0.048,
    Until: 21:57,1.000,
    Until: 23:37,0.000,
    Until: 23:39,1.000,
    Until: 24:00,0.048,
    Through: 5/5,
    For: AllDays,
    Until: 00:24,0.048,
    Until: 00:29,1.000,
    Until: 11:35,0.000,
    Until: 11:37,1.000,
    Until: 12:22,0.048,
    Until: 12:27,1.000,
    Until: 12:42,0.000,
    Until: 12:44,1.000,
    Until: 13:29,0.048,
    Until: 13:34,1.000,
    Until: 16:44,0.000,
    Until: 16:46,1.000,
    Until: 17:31,0.048,
    Until: 17:36,1.000,
    Until: 20:21,0.000,
    Until: 20:23,1.000,
    Until: 21:08,0.048,
    Until: 21:13,1.000,
    Until: 21:22,0.000,
    Until: 21:24,1.000,
    Until: 22:09,0.048,
    Until: 22:14,1.000,
    Until: 24:00,0.000,
    Through: 5/6,
    For: AllDays,
    Until: 09:18,0.000,
    Until: 09:20,1.000,
    Until: 10:05,0.048,
    Until: 10:10,1.000,
    Until: 14:03,0.000,
    Until: 14:05,1.000,
    Until: 14:50,0.048,
    Until: 14:55,1.000,
    Until: 18:01,0.000,
    Until: 18:03,1.000,
    Until: 18:48,0.048,
    Until: 18:53,1.000,
    Until: 20:35,0.000,
    Until: 20:37,1.000,
    Until: 21:22,0.048,
    Until: 21:27,1.000,
    Until: 21:48,0.000,
    Until: 21:50,1.000,
    Until: 22:35,0.048,
    Until: 22:40,1.000,
    Until: 23:19,0.000,
    Until: 23:21,1.000,
    Until: 24:00,0.048,
    Through: 5/7,
    For: AllDays,
    Until: 00:06,0.048,
    Until: 00:11,1.000,
    Until: 08:56,0.000,
    Until: 08:58,1.000,
    Until: 09:43,0.048,
    Until: 09:48,1.000,
    Until: 11:03,0.000,
    Until: 11:05,1.000,
    Until: 11:50,0.048,
    Until: 11:55,1.000,
    Until: 14:14,0.000,
    Until: 14:16,1.000,
    Until: 15:01,0.048,
    Until: 15:06,1.000,
    Until: 22:44,0.000,
    Until: 22:46,1.000,
    Until: 23:31,0.048,
    Until: 23:36,1.000,
    Until: 24:00,0.000,
    Through: 5/8,
    For: AllDays,
    Until: 11:23,0.000,
    Until: 11:25,1.000,
    Until: 12:10,0.048,
    Until: 12:15,1.000,
    Until: 20:32,0.000,
    Until: 20:34,1.000,
    Until: 21:19,0.048,
    Until: 21:24,1.000,
    Until: 22:37,0.000,
    Until: 22:39,1.000,
    Until: 23:24,0.048,
    Until: 23:29,1.000,
    Until: 24:00,0.000,
    Through: 5/9,
    For: AllDays,
    Until: 24:00,0.000,
    Through: 5/10,
    For: AllDays,
    Until: 24:00,0.000,
    Through: 5/11,
    For: AllDays,
    Until: 12:32,0.000,
    Until: 12:34,1.000,
    Until: 13:19,0.048,
    Until: 13:24,1.000,
    Until: 15:14,0.000,
    Until: 15:16,1.000,
    Until: 16:01,0.048,
    Until: 16:06,1.000,
    Until: 20:45,0.000,
    Until: 20:47,1.000,
    Until: 21:32,0.048,
    Until: 21:37,1.000,
    Until: 23:33,0.000,
    Until: 23:35,1.000,
    Until: 24:00,0.048,
    Through: 5/12,
    For: AllDays,
    Until: 00:20,0.048,
    Until: 00:25,1.000,
    Until: 11:55,0.000,
    Until: 11:57,1.000,
    Until: 12:42,0.048,
    Until: 12:47,1.000,
    Until: 15:56,0.000,
    Until: 15:58,1.000,
    Until: 16:43,0.048,
    Until: 16:48,1.000,
    Until: 20:36,0.000,
    Until: 20:38,1.000,
    Until: 21:23,0.048,
    Until: 21:28,1.000,
    Until: 21:29,0.000,
    Until: 21:31,1.000,
    Until: 22:16,0.048,
    Until: 22:21,1.000,
    Until: 22:53,0.000,
    Until: 22:55,1.000,
    Until: 23:40,0.048,
    Until: 23:45,1.000,
    Until: 24:00,0.000,
    Through: 5/13,
    For: AllDays,
    Until: 12:32,0.000,
    Until: 12:34,1.000,
    Until: 13:19,0.048,
    Until: 13:24,1.000,
    Until: 16:46,0.000,
    Until: 16:48,1.000,
    Until: 17:33,0.048,
    Until: 17:38,1.000,
    Until: 20:46,0.000,
    Until: 20:48,1.000,
    Until: 21:33,0.048,
    Until: 21:38,1.000,
    Until: 22:15,0.000,
    Until: 22:17,1.000,
    Until: 23:02,0.048,
    Until: 23:07,1.000,
    Until: 24:00,0.000,
    Through: 5/14,
    For: AllDays,
    Until: 08:20,0.000,
    Until: 08:22,1.000,
    Until: 09:07,0.048,
    Until: 09:12,1.000,
    Until: 12:41,0.000,
    Until: 12:43,1.000,
    Until: 13:28,0.048,
    Until: 13:33,1.000,
    Until: 13:45,0.000,
    Until: 13:47,1.000,
    Until: 14:32,0.048,
    Until: 14:37,1.000,
    Until: 16:21,0.000,
    Until: 16:23,1.000,
    Until: 17:08,0.048,
    Until: 17:13,1.000,
    Until: 18:00,0.000,
    Until: 18:02,1.000,
    Until: 18:47,0.048,
    Until: 18:52,1.000,
    Until: 21:02,0.000,
    Until: 21:04,1.000,
    Until: 21:49,0.048,
    Until: 21:54,1.000,
    Until: 22:37,0.000,
    Until: 22:39,1.000,
    Until: 23:24,0.048,
    Until: 23:29,1.000,
    Until: 23:32,0.000,
    Until: 23:34,1.000,
    Until: 24:00,0.048,
    Through: 5/15,
    For: AllDays,
    Until: 00:19,0.048,
    Until: 00:24,1.000,
    Until: 11:08,0.000,
    Until: 11:10,1.000,
    Until: 11:55,0.048,
    Until: 12:00,1.000,
    Until: 12:47,0.000,
    Until: 12:49,1.000,
    Until: 13:34,0.048,
    Until: 13:39,1.000,
    Until: 16:03,0.000,
    Until: 16:05,1.000,
    Until: 16:50,0.048,
    Until: 16:55,1.000,
    Until: 17:40,0.000,
    Until: 17:42,1.000,
    Until: 18:27,0.048,
    Until: 18:32,1.000,
    Until: 20:37,0.000,
    Until: 20:39,1.000,
    Until: 21:24,0.048,
    Until: 21:29,1.000,
    Until: 23:00,0.000,
    Until: 23:02,1.000,
    Until: 23:47,0.048,
    Until: 23:52,1.000,
    Until: 24:00,0.000,
    Through: 5/16,
    For: AllDays,
    Until: 24:00,0.000,
    Through: 5/17,
    For: AllDays,
    Until: 24:00,0.000,
    Through: 5/18,
    For: AllDays,
    Until: 10:59,0.000,
    Until: 11:01,1.000,
    Until: 11:46,0.048,
    Until: 11:51,1.000,
    Until: 20:56,0.000,
    Until: 20:58,1.000,
    Until: 21:43,0.048,
    Until: 21:48,1.000,
    Until: 21:49,0.000,
    Until: 21:51,1.000,
    Until: 22:36,0.048,
    Until: 22:41,1.000,
    Until: 24:00,0.000,
    Through: 5/19,
    For: AllDays,
    Until: 12:36,0.000,
    Until: 12:38,1.000,
    Until: 13:23,0.048,
    Until: 13:28,1.000,
    Until: 21:16,0.000,
    Until: 21:18,1.000,
    Until: 22:03,0.048,
    Until: 22:08,1.000,
    Until: 22:09,0.000,
    Until: 22:11,1.000,
    Until: 22:56,0.048,
    Until: 23:01,1.000,
    Until: 24:00,0.000,
    Through: 5/20,
    For: AllDays,
    Until: 07:25,0.000,
    Until: 07:27,1.000,
    Until: 08:12,0.048,
    Until: 08:17,1.000,
    Until: 10:14,0.000,
    Until: 10:16,1.000,
    Until: 11:01,0.048,
    Until: 11:06,1.000,
    Until: 13:00,0.000,
    Until: 13:02,1.000,
    Until: 13:47,0.048,
    Until: 13:52,1.000,
    Until: 16:11,0.000,
    Until: 16:13,1.000,
    Until: 16:58,0.048,
    Until: 17:03,1.000,
    Until: 22:06,0.000,
    Until: 22:08,1.000,
    Until: 22:53,0.048,
    Until: 22:58,1.000,
    Until: 23:05,0.000,
    Until: 23:07,1.000,
    Until: 23:52,0.048,
    Until: 23:57,1.000,
    Until: 24:00,0.000,
    Through: 5/21,
    For: AllDays,
    Until: 08:23,0.000,
    Until: 08:25,1.000,
    Until: 09:10,0.048,
    Until: 09:15,1.000,
    Until: 10:32,0.000,
    Until: 10:34,1.000,
    Until: 11:19,0.048,
    Until: 11:24,1.000,
    Until: 13:13,0.000,
    Until: 13:15,1.000,
    Until: 14:00,0.048,
    Until: 14:05,1.000,
    Until: 16:00,0.000,
    Until: 16:02,1.000,
    Until: 16:47,0.048,
    Until: 16:52,1.000,
    Until: 21:59,0.000,
    Until: 22:01,1.000,
    Until: 22:46,0.048,
    Until: 22:51,1.000,
    Until: 22:52,0.000,
    Until: 22:54,1.000,
    Until: 23:39,0.048,
    Until: 23:44,1.000,
    Until: 24:00,0.000,
    Through: 5/22,
    For: AllDays,
    Until: 06:32,0.000,
    Until: 06:34,1.000,
    Until: 07:19,0.048,
    Until: 07:24,1.000,
    Until: 12:21,0.000,
    Until: 12:23,1.000,
    Until: 13:08,0.048,
    Until: 13:13,1.000,
    Until: 18:11,0.000,
    Until: 18:13,1.000,
    Until: 18:58,0.048,
    Until: 19:03,1.000,
    Until: 20:45,0.000,
    Until: 20:47,1.000,
    Until: 21:32,0.048,
    Until: 21:37,1.000,
    Until: 21:50,0.000,
    Until: 21:52,1.000,
    Until: 22:37,0.048,
    Until: 22:42,1.000,
    Until: 24:00,0.000,
    Through: 5/23,
    For: AllDays,
    Until: 24:00,0.000,
    Through: 5/24,
    For: AllDays,
    Until: 24:00,0.000,
    Through: 5/25,
    For: AllDays,
    Until: 06:11,0.000,
    Until: 06:13,1.000,
    Until: 06:58,0.048,
    Until: 07:03,1.000,
    Until: 10:51,0.000,
    Until: 10:53,1.000,
    Until: 11:38,0.048,
    Until: 11:43,1.000,
    Until: 12:46,0.000,
    Until: 12:48,1.000,
    Until: 13:33,0.048,
    Until: 13:38,1.000,
    Until: 20:40,0.000,
    Until: 20:42,1.000,
    Until: 21:27,0.048,
    Until: 21:32,1.000,
    Until: 21:33,0.000,
    Until: 21:35,1.000,
    Until: 22:20,0.048,
    Until: 22:25,1.000,
    Until: 22:41,0.000,
    Until: 22:43,1.000,
    Until: 23:28,0.048,
    Until: 23:33,1.000,
    Until: 24:00,0.000,
    Through: 5/26,
    For: AllDays,
    Until: 12:14,0.000,
    Until: 12:16,1.000,
    Until: 13:01,0.048,
    Until: 13:06,1.000,
    Until: 13:08,0.000,
    Until: 13:10,1.000,
    Until: 13:55,0.048,
    Until: 14:00,1.000,
    Until: 19:39,0.000,
    Until: 19:41,1.000,
    Until: 20:26,0.048,
    Until: 20:31,1.000,
    Until: 22:03,0.000,
    Until: 22:05,1.000,
    Until: 22:50,0.048,
    Until: 22:55,1.000,
    Until: 24:00,0.000,
    Through: 5/27,
    For: AllDays,
    Until: 11:33,0.000,
    Until: 11:35,1.000,
    Until: 12:20,0.048,
    Until: 12:25,1.000,
    Until: 13:18,0.000,
    Until: 13:20,1.000,
    Until: 14:05,0.048,
    Until: 14:10,1.000,
    Until: 21:11,0.000,
    Until: 21:13,1.000,
    Until: 21:58,0.048,
    Until: 22:03,1.000,
    Until: 22:04,0.000,
    Until: 22:06,1.000,
    Until: 22:51,0.048,
    Until: 22:56,1.000,
    Until: 23:17,0.000,
    Until: 23:19,1.000,
    Until: 24:00,0.048,
    Through: 5/28,
    For: AllDays,
    Until: 00:04,0.048,
    Until: 00:09,1.000,
    Until: 07:22,0.000,
    Until: 07:24,1.000,
    Until: 08:09,0.048,
    Until: 08:14,1.000,
    Until: 11:11,0.000,
    Until: 11:13,1.000,
    Until: 11:58,0.048,
    Until: 12:03,1.000,
    Until: 16:32,0.000,
    Until: 16:34,1.000,
    Until: 17:19,0.048,
    Until: 17:24,1.000,
    Until: 19:40,0.000,
    Until: 19:42,1.000,
    Until: 20:27,0.048,
    Until: 20:32,1.000,
    Until: 20:33,0.000,
    Until: 20:35,1.000,
    Until: 21:20,0.048,
    Until: 21:25,1.000,
    Until: 21:26,0.000,
    Until: 21:28,1.000,
    Until: 22:13,0.048,
    Until: 22:18,1.000,
    Until: 24:00,0.000,
    Through: 5/29,
    For: AllDays,
    Until: 07:46,0.000,
    Until: 07:48,1.000,
    Until: 08:33,0.048,
    Until: 08:38,1.000,
    Until: 09:59,0.000,
    Until: 10:01,1.000,
    Until: 10:46,0.048,
    Until: 10:51,1.000,
    Until: 12:49,0.000,
    Until: 12:51,1.000,
    Until: 13:36,0.048,
    Until: 13:41,1.000,
    Until: 19:49,0.000,
    Until: 19:51,1.000,
    Until: 20:36,0.048,
    Until: 20:41,1.000,
    Until: 22:36,0.000,
    Until: 22:38,1.000,
    Until: 23:23,0.048,
    Until: 23:28,1.000,
    Until: 24:00,0.000,
    Through: 5/30,
    For: AllDays,
    Until: 24:00,0.000,
    Through: 5/31,
    For: AllDays,
    Until: 24:00,0.000,
    Through: 6/1,
    For: AllDays,
    Until: 09:03,0.000,
    Until: 09:05,1.000,
    Until: 09:50,0.048,
    Until: 09:55,1.000,
    Until: 13:55,0.000,
    Until: 13:57,1.000,
    Until: 14:42,0.048,
    Until: 14:47,1.000,
    Until: 16:38,0.000,
    Until: 16:40,1.000,
    Until: 17:25,0.048,
    Until: 17:30,1.000,
    Until: 20:09,0.000,
    Until: 20:11,1.000,
    Until: 20:56,0.048,
    Until: 21:01,1.000,
    Until: 22:47,0.000,
    Until: 22:49,1.000,
    Until: 23:34,0.048,
    Until: 23:39,1.000,
    Until: 24:00,0.000,
    Through: 6/2,
    For: AllDays,
    Until: 08:34,0.000,
    Until: 08:36,1.000,
    Until: 09:21,0.048,
    Until: 09:26,1.000,
    Until: 12:58,0.000,
    Until: 13:00,1.000,
    Until: 13:45,0.048,
    Until: 13:50,1.000,
    Until: 20:29,0.000,
    Until: 20:31,1.000,
    Until: 21:16,0.048,
    Until: 21:21,1.000,
    Until: 23:05,0.000,
    Until: 23:07,1.000,
    Until: 23:52,0.048,
    Until: 23:57,1.000,
    Until: 24:00,0.000,
    Through: 6/3,
    For: AllDays,
    Until: 07:15,0.000,
    Until: 07:17,1.000,
    Until: 08:02,0.048,
    Until: 08:07,1.000,
    Until: 11:58,0.000,
    Until: 12:00,1.000,
    Until: 12:45,0.048,
    Until: 12:50,1.000,
    Until: 13:47,0.000,
    Until: 13:49,1.000,
    Until: 14:34,0.048,
    Until: 14:39,1.000,
    Until: 17:30,0.000,
    Until: 17:32,1.000,
    Until: 18:17,0.048,
    Until: 18:22,1.000,
    Until: 22:37,0.000,
    Until: 22:39,1.000,
    Until: 23:24,0.048,
    Until: 23:29,1.000,
    Until: 23:30,0.000,
    Until: 23:32,1.000,
    Until: 24:00,0.048,
    Through: 6/4,
    For: AllDays,
    Until: 00:17,0.048,
    Until: 00:22,1.000,
    Until: 12:55,0.000,
    Until: 12:57,1.000,
    Until: 13:42,0.048,
    Until: 13:47,1.000,
    Until: 17:15,0.000,
    Until: 17:17,1.000,
    Until: 18:02,0.048,
    Until: 18:07,1.000,
    Until: 21:02,0.000,
    Until: 21:04,1.000,
    Until: 21:49,0.048,
    Until: 21:54,1.000,
    Until: 22:00,0.000,
    Until: 22:02,1.000,
    Until: 22:47,0.048,
    Until: 22:52,1.000,
    Until: 24:00,0.000,
    Through: 6/5,
    For: AllDays,
    Until: 13:22,0.000,
    Until: 13:24,1.000,
    Until: 14:09,0.048,
    Until: 14:14,1.000,
    Until: 20:07,0.000,
    Until: 20:09,1.000,
    Until: 20:54,0.048,
    Until: 20:59,1.000,
    Until: 23:24,0.000,
    Until: 23:26,1.000,
    Until: 24:00,0.048,
    Through: 6/6,
    For: AllDays,
    Until: 00:11,0.048,
    Until: 00:16,1.000,
    Until: 24:00,0.000,
    Through: 6/7,
    For: AllDays,
    Until: 24:00,0.000,
    Through: 6/8,
    For: AllDays,
    Until: 08:29,0.000,
    Until: 08:31,1.000,
    Until: 09:16,0.048,
    Until: 09:21,1.000,
    Until: 12:17,0.000,
    Until: 12:19,1.000,
    Until: 13:04,0.048,
    Until: 13:09,1.000,
    Until: 15:58,0.000,
    Until: 16:00,1.000,
    Until: 16:45,0.048,
    Until: 16:50,1.000,
    Until: 18:29,0.000,
    Until: 18:31,1.000,
    Until: 19:16,0.048,
    Until: 19:21,1.000,
    Until: 21:37,0.000,
    Until: 21:39,1.000,
    Until: 22:24,0.048,
    Until: 22:29,1.000,
    Until: 24:00,0.000,
    Through: 6/9,
    For: AllDays,
    Until: 13:49,0.000,
    Until: 13:51,1.000,
    Until: 14:36,0.048,
    Until: 14:41,1.000,
    Until: 19:26,0.000,
    Until: 19:28,1.000,
    Until: 20:13,0.048,
    Until: 20:18,1.000,
    Until: 20:35,0.000,
    Until: 20:37,1.000,
    Until: 21:22,0.048,
    Until: 21:27,1.000,
    Until: 21:47,0.000,
    Until: 21:49,1.000,
    Until: 22:34,0.048,
    Until: 22:39,1.000,
    Until: 24:00,0.000,
    Through: 6/10,
    For: AllDays,
    Until: 12:35,0.000,
    Until: 12:37,1.000,
    Until: 13:22,0.048,
    Until: 13:27,1.000,
    Until: 18:17,0.000,
    Until: 18:19,1.000,
    Until: 19:04,0.048,
    Until: 19:09,1.000,
    Until: 21:10,0.000,
    Until: 21:12,1.000,
    Until: 21:57,0.048,
    Until: 22:02,1.000,
    Until: 24:00,0.000,
    Through: 6/11,
    For: AllDays,
    Until: 12:33,0.000,
    Until: 12:35,1.000,
    Until: 13:20,0.048,
    Until: 13:25,1.000,
    Until: 17:04,0.000,
    Until: 17:06,1.000,
    Until: 17:51,0.048,
    Until: 17:56,1.000,
    Until: 21:51,0.000,
    Until: 21:53,1.000,
    Until: 22:38,0.048,
    Until: 22:43,1.000,
    Until: 24:00,0.000,
    Through: 6/12,
    For: AllDays,
    Until: 06:12,0.000,
    Until: 06:14,1.000,
    Until: 06:59,0.048,
    Until: 07:04,1.000,
    Until: 10:13,0.000,
    Until: 10:15,1.000,
    Until: 11:00,0.048,
    Until: 11:05,1.000,
    Until: 12:01,0.000,
    Until: 12:03,1.000,
    Until: 12:48,0.048,
    Until: 12:53,1.000,
    Until: 12:55,0.000,
    Until: 12:57,1.000,
    Until: 13:42,0.048,
    Until: 13:47,1.000,
    Until: 20:35,0.000,
    Until: 20:37,1.000,
    Until: 21:22,0.048,
    Until: 21:27,1.000,
    Until: 21:47,0.000,
    Until: 21:49,1.000,
    Until: 22:34,0.048,
    Until: 22:39,1.000,
    Until: 24:00,0.000,
    Through: 6/13,
    For: AllDays,
    Until: 24:00,0.000,
    Through: 6/14,
    For: AllDays,
    Until: 24:00,0.000,
    Through: 6/15,
    For: AllDays,
    Until: 10:17,0.000,
    Until: 10:19,1.000,
    Until: 11:04,0.048,
    Until: 11:09,1.000,
    Until: 18:38,0.000,
    Until: 18:40,1.000,
    Until: 19:25,0.048,
    Until: 19:30,1.000,
    Until: 20:50,0.000,
    Until: 20:52,1.000,
    Until: 21:37,0.048,
    Until: 21:42,1.000,
    Until: 22:00,0.000,
    Until: 22:02,1.000,
    Until: 22:47,0.048,
    Until: 22:52,1.000,
    Until: 24:00,0.000,
    Through: 6/16,
    For: AllDays,
    Until: 06:34,0.000,
    Until: 06:36,1.000,
    Until: 07:21,0.048,
    Until: 07:26,1.000,
    Until: 10:30,0.000,
    Until: 10:32,1.000,
    Until: 11:17,0.048,
    Until: 11:22,1.000,
    Until: 11:58,0.000,
    Until: 12:00,1.000,
    Until: 12:45,0.048,
    Until: 12:50,1.000,
    Until: 21:03,0.000,
    Until: 21:05,1.000,
    Until: 21:50,0.048,
    Until: 21:55,1.000,
    Until: 22:48,0.000,
    Until: 22:50,1.000,
    Until: 23:35,0.048,
    Until: 23:40,1.000,
    Until: 24:00,0.000,
    Through: 6/17,
    For: AllDays,
    Until: 12:03,0.000,
    Until: 12:05,1.000,
    Until: 12:50,0.048,
    Until: 12:55,1.000,
    Until: 23:03,0.000,
    Until: 23:05,1.000,
    Until: 23:50,0.048,
    Until: 23:55,1.000,
    Until: 24:00,0.000,
    Through: 6/18,
    For: AllDays,
    Until: 12:07,0.000,
    Until: 12:09,1.000,
    Until: 12:54,0.048,
    Until: 12:59,1.000,
    Until: 19:32,0.000,
    Until: 19:34,1.000,
    Until: 20:19,0.048,
    Until: 20:24,1.000,
    Until: 21:46,0.000,
    Until: 21:48,1.000,
    Until: 22:33,0.048,
    Until: 22:38,1.000,
    Until: 24:00,0.000,
    Through: 6/19,
    For: AllDays,
    Until: 08:04,0.000,
    Until: 08:06,1.000,
    Until: 08:51,0.048,
    Until: 08:56,1.000,
    Until: 10:48,0.000,
    Until: 10:50,1.000,
    Until: 11:35,0.048,
    Until: 11:40,1.000,
    Until: 22:10,0.000,
    Until: 22:12,1.000,
    Until: 22:57,0.048,
    Until: 23:02,1.000,
    Until: 23:14,0.000,
    Until: 23:16,1.000,
    Until: 24:00,0.048,
    Through: 6/20,
    For: AllDays,
    Until: 00:01,0.048,
    Until: 00:06,1.000,
    Until: 24:00,0.000,
    Through: 6/21,
    For: AllDays,
    Until: 24:00,0.000,
    Through: 6/22,
    For: AllDays,
    Until: 10:08,0.000,
    Until: 10:10,1.000,
    Until: 10:55,0.048,
    Until: 11:00,1.000,
    Until: 11:09,0.000,
    Until: 11:11,1.000,
    Until: 11:56,0.048,
    Until: 12:01,1.000,
    Until: 16:26,0.000,
    Until: 16:28,1.000,
    Until: 17:13,0.048,
    Until: 17:18,1.000,
    Until: 21:26,0.000,
    Until: 21:28,1.000,
    Until: 22:13,0.048,
    Until: 22:18,1.000,
    Until: 24:00,0.000,
    Through: 6/23,
    For: AllDays,
    Until: 08:33,0.000,
    Until: 08:35,1.000,
    Until: 09:20,0.048,
    Until: 09:25,1.000,
    Until: 11:57,0.000,
    Until: 11:59,1.000,
    Until: 12:44,0.048,
    Until: 12:49,1.000,
    Until: 16:13,0.000,
    Until: 16:15,1.000,
    Until: 17:00,0.048,
    Until: 17:05,1.000,
    Until: 20:25,0.000,
    Until: 20:27,1.000,
    Until: 21:12,0.048,
    Until: 21:17,1.000,
    Until: 21:19,0.000,
    Until: 21:21,1.000,
    Until: 22:06,0.048,
    Until: 22:11,1.000,
    Until: 24:00,0.000,
    Through: 6/24,
    For: AllDays,
    Until: 08:49,0.000,
    Until: 08:51,1.000,
    Until: 09:36,0.048,
    Until: 09:41,1.000,
    Until: 12:49,0.000,
    Until: 12:51,1.000,
    Until: 13:36,0.048,
    Until: 13:41,1.000,
    Until: 21:30,0.000,
    Until: 21:32,1.000,
    Until: 22:17,0.048,
    Until: 22:22,1.000,
    Until: 23:20,0.000,
    Until: 23:22,1.000,
    Until: 24:00,0.048,
    Through: 6/25,
    For: AllDays,
    Until: 00:07,0.048,
    Until: 00:12,1.000,
    Until: 09:17,0.000,
    Until: 09:19,1.000,
    Until: 10:04,0.048,
    Until: 10:09,1.000,
    Until: 11:32,0.000,
    Until: 11:34,1.000,
    Until: 12:19,0.048,
    Until: 12:24,1.000,
    Until: 14:06,0.000,
    Until: 14:08,1.000,
    Until: 14:53,0.048,
    Until: 14:58,1.000,
    Until: 21:20,0.000,
    Until: 21:22,1.000,
    Until: 22:07,0.048,
    Until: 22:12,1.000,
    Until: 22:27,0.000,
    Until: 22:29,1.000,
    Until: 23:14,0.048,
    Until: 23:19,1.000,
    Until: 24:00,0.000,
    Through: 6/26,
    For: AllDays,
    Until: 08:04,0.000,
    Until: 08:06,1.000,
    Until: 08:51,0.048,
    Until: 08:56,1.000,
    Until: 10:08,0.000,
    Until: 10:10,1.000,
    Until: 10:55,0.048,
    Until: 11:00,1.000,
    Until: 13:42,0.000,
    Until: 13:44,1.000,
    Until: 14:29,0.048,
    Until: 14:34,1.000,
    Until: 16:55,0.000,
    Until: 16:57,1.000,
    Until: 17:42,0.048,
    Until: 17:47,1.000,
    Until: 19:49,0.000,
    Until: 19:51,1.000,
    Until: 20:36,0.048,
    Until: 20:41,1.000,
    Until: 20:54,0.000,
    Until: 20:56,1.000,
    Until: 21:41,0.048,
    Until: 21:46,1.000,
    Until: 22:41,0.000,
    Until: 22:43,1.000,
    Until: 23:28,0.048,
    Until: 23:33,1.000,
    Until: 24:00,0.000,
    Through: 6/27,
    For: AllDays,
    Until: 24:00,0.000,
    Through: 6/28,
    For: AllDays,
    Until: 24:00,0.000,
    Through: 6/29,
    For: AllDays,
    Until: 09:13,0.000,
    Until: 09:15,1.000,
    Until: 10:00,0.048,
    Until: 10:05,1.000,
    Until: 13:44,0.000,
    Until: 13:46,1.000,
    Until: 14:31,0.048,
    Until: 14:36,1.000,
    Until: 15:26,0.000,
    Until: 15:28,1.000,
    Until: 16:13,0.048,
    Until: 16:18,1.000,
    Until: 17:10,0.000,
    Until: 17:12,1.000,
    Until: 17:57,0.048,
    Until: 18:02,1.000,
    Until: 20:58,0.000,
    Until: 21:00,1.000,
    Until: 21:45,0.048,
    Until: 21:50,1.000,
    Until: 23:42,0.000,
    Until: 23:44,1.000,
    Until: 24:00,0.048,
    Through: 6/30,
    For: AllDays,
    Until: 00:29,0.048,
    Until: 00:34,1.000,
    Until: 05:20,0.000,
    Until: 05:22,1.000,
    Until: 06:07,0.048,
    Until: 06:12,1.000,
    Until: 10:27,0.000,
    Until: 10:29,1.000,
    Until: 11:14,0.048,
    Until: 11:19,1.000,
    Until: 11:59,0.000,
    Until: 12:01,1.000,
    Until: 12:46,0.048,
    Until: 12:51,1.000,
    Until: 15:35,0.000,
    Until: 15:37,1.000,
    Until: 16:22,0.048,
    Until: 16:27,1.000,
    Until: 16:33,0.000,
    Until: 16:35,1.000,
    Until: 17:20,0.048,
    Until: 17:25,1.000,
    Until: 22:07,0.000,
    Until: 22:09,1.000,
    Until: 22:54,0.048,
    Until: 22:59,1.000,
    Until: 23:00,0.000,
    Until: 23:02,1.000,
    Until: 23:47,0.048,
    Until: 23:52,1.000,
    Until: 24:00,0.000,
    Through: 7/1,
    For: AllDays,
    Until: 12:24,0.000,
    Until: 12:26,1.000,
    Until: 13:11,0.048,
    Until: 13:16,1.000,
    Until: 19:41,0.000,
    Until: 19:43,1.000,
    Until: 20:28,0.048,
    Until: 20:33,1.000,
    Until: 20:43,0.000,
    Until: 20:45,1.000,
    Until: 21:30,0.048,
    Until: 21:35,1.000,
    Until: 21:48,0.000,
    Until: 21:50,1.000,
    Until: 22:35,0.048,
    Until: 22:40,1.000,
    Until: 24:00,0.000,
    Through: 7/2,
    For: AllDays,
    Until: 13:15,0.000,
    Until: 13:17,1.000,
    Until: 14:02,0.048,
    Until: 14:07,1.000,
    Until: 16:31,0.000,
    Until: 16:33,1.000,
    Until: 17:18,0.048,
    Until: 17:23,1.000,
    Until: 22:08,0.000,
    Until: 22:10,1.000,
    Until: 22:55,0.048,
    Until: 23:00,1.000,
    Until: 24:00,0.000,
    Through: 7/3,
    For: AllDays,
    Until: 07:24,0.000,
    Until: 07:26,1.000,
    Until: 08:11,0.048,
    Until: 08:16,1.000,
    Until: 11:12,0.000,
    Until: 11:14,1.000,
    Until: 11:59,0.048,
    Until: 12:04,1.000,
    Until: 17:52,0.000,
    Until: 17:54,1.000,
    Until: 18:39,0.048,
    Until: 18:44,1.000,
    Until: 20:39,0.000,
    Until: 20:41,1.000,
    Until: 21:26,0.048,
    Until: 21:31,1.000,
    Until: 21:32,0.000,
    Until: 21:34,1.000,
    Until: 22:19,0.048,
    Until: 22:24,1.000,
    Until: 24:00,0.000,
    Through: 7/4,
    For: AllDays,
    Until: 24:00,0.000,
    Through: 7/5,
    For: AllDays,
    Until: 24:00,0.000,
    Through: 7/6,
    For: AllDays,
    Until: 08:30,0.000,
    Until: 08:32,1.000,
    Until: 09:17,0.048,
    Until: 09:22,1.000,
    Until: 11:36,0.000,
    Until: 11:38,1.000,
    Until: 12:23,0.048,
    Until: 12:28,1.000,
    Until: 13:02,0.000,
    Until: 13:04,1.000,
    Until: 13:49,0.048,
    Until: 13:54,1.000,
    Until: 15:21,0.000,
    Until: 15:23,1.000,
    Until: 16:08,0.048,
    Until: 16:13,1.000,
    Until: 20:46,0.000,
    Until: 20:48,1.000,
    Until: 21:33,0.048,
    Until: 21:38,1.000,
    Until: 22:00,0.000,
    Until: 22:02,1.000,
    Until: 22:47,0.048,
    Until: 22:52,1.000,
    Until: 24:00,0.000,
    Through: 7/7,
    For: AllDays,
    Until: 08:50,0.000,
    Until: 08:52,1.000,
    Until: 09:37,0.048,
    Until: 09:42,1.000,
    Until: 11:46,0.000,
    Until: 11:48,1.000,
    Until: 12:33,0.048,
    Until: 12:38,1.000,
    Until: 13:15,0.000,
    Until: 13:17,1.000,
    Until: 14:02,0.048,
    Until: 14:07,1.000,
    Until: 15:10,0.000,
    Until: 15:12,1.000,
    Until: 15:57,0.048,
    Until: 16:02,1.000,
    Until: 17:12,0.000,
    Until: 17:14,1.000,
    Until: 17:59,0.048,
    Until: 18:04,1.000,
    Until: 21:39,0.000,
    Until: 21:41,1.000,
    Until: 22:26,0.048,
    Until: 22:31,1.000,
    Until: 22:32,0.000,
    Until: 22:34,1.000,
    Until: 23:19,0.048,
    Until: 23:24,1.000,
    Until: 24:00,0.000,
    Through: 7/8,
    For: AllDays,
    Until: 11:08,0.000,
    Until: 11:10,1.000,
    Until: 11:55,0.048,
    Until: 12:00,1.000,
    Until: 12:01,0.000,
    Until: 12:03,1.000,
    Until: 12:48,0.048,
    Until: 12:53,1.000,
    Until: 18:27,0.000,
    Until: 18:29,1.000,
    Until: 19:14,0.048,
    Until: 19:19,1.000,
    Until: 20:58,0.000,
    Until: 21:00,1.000,
    Until: 21:45,0.048,
    Until: 21:50,1.000,
    Until: 21:51,0.000,
    Until: 21:53,1.000,
    Until: 22:38,0.048,
    Until: 22:43,1.000,
    Until: 22:44,0.000,
    Until: 22:46,1.000,
    Until: 23:31,0.048,
    Until: 23:36,1.000,
    Until: 24:00,0.000,
    Through: 7/9,
    For: AllDays,
    Until: 10:04,0.000,
    Until: 10:06,1.000,
    Until: 10:51,0.048,
    Until: 10:56,1.000,
    Until: 12:49,0.000,
    Until: 12:51,1.000,
    Until: 13:36,0.048,
    Until: 13:41,1.000,
    Until: 18:09,0.000,
    Until: 18:11,1.000,
    Until: 18:56,0.048,
    Until: 19:01,1.000,
    Until: 19:42,0.000,
    Until: 19:44,1.000,
    Until: 20:29,0.048,
    Until: 20:34,1.000,
    Until: 20:50,0.000,
    Until: 20:52,1.000,
    Until: 21:37,0.048,
    Until: 21:42,1.000,
    Until: 22:33,0.000,
    Until: 22:35,1.000,
    Until: 23:20,0.048,
    Until: 23:25,1.000,
    Until: 24:00,0.000,
    Through: 7/10,
    For: AllDays,
    Until: 11:58,0.000,
    Until: 12:00,1.000,
    Until: 12:45,0.048,
    Until: 12:50,1.000,
    Until: 14:01,0.000,
    Until: 14:03,1.000,
    Until: 14:48,0.048,
    Until: 14:53,1.000,
    Until: 21:10,0.000,
    Until: 21:12,1.000,
    Until: 21:57,0.048,
    Until: 22:02,1.000,
    Until: 22:23,0.000,
    Until: 22:25,1.000,
    Until: 23:10,0.048,
    Until: 23:15,1.000,
    Until: 23:16,0.000,
    Until: 23:18,1.000,
    Until: 24:00,0.048,
    Through: 7/11,
    For: AllDays,
    Until: 00:03,0.048,
    Until: 00:08,1.000,
    Until: 24:00,0.000,
    Through: 7/12,
    For: AllDays,
    Until: 24:00,0.000,
    Through: 7/13,
    For: AllDays,
    Until: 06:46,0.000,
    Until: 06:48,1.000,
    Until: 07:33,0.048,
    Until: 07:38,1.000,
    Until: 13:21,0.000,
    Until: 13:23,1.000,
    Until: 14:08,0.048,
    Until: 14:13,1.000,
    Until: 18:23,0.000,
    Until: 18:25,1.000,
    Until: 19:10,0.048,
    Until: 19:15,1.000,
    Until: 20:56,0.000,
    Until: 20:58,1.000,
    Until: 21:43,0.048,
    Until: 21:48,1.000,
    Until: 21:49,0.000,
    Until: 21:51,1.000,
    Until: 22:36,0.048,
    Until: 22:41,1.000,
    Until: 24:00,0.000,
    Through: 7/14,
    For: AllDays,
    Until: 11:25,0.000,
    Until: 11:27,1.000,
    Until: 12:12,0.048,
    Until: 12:17,1.000,
    Until: 12:26,0.000,
    Until: 12:28,1.000,
    Until: 13:13,0.048,
    Until: 13:18,1.000,
    Until: 17:26,0.000,
    Until: 17:28,1.000,
    Until: 18:13,0.048,
    Until: 18:18,1.000,
    Until: 18:47,0.000,
    Until: 18:49,1.000,
    Until: 19:34,0.048,
    Until: 19:39,1.000,
    Until: 20:51,0.000,
    Until: 20:53,1.000,
    Until: 21:38,0.048,
    Until: 21:43,1.000,
    Until: 22:00,0.000,
    Until: 22:02,1.000,
    Until: 22:47,0.048,
    Until: 22:52,1.000,
    Until: 24:00,0.000,
    Through: 7/15,
    For: AllDays,
    Until: 06:35,0.000,
    Until: 06:37,1.000,
    Until: 07:22,0.048,
    Until: 07:27,1.000,
    Until: 11:01,0.000,
    Until: 11:03,1.000,
    Until: 11:48,0.048,
    Until: 11:53,1.000,
    Until: 12:04,0.000,
    Until: 12:06,1.000,
    Until: 12:51,0.048,
    Until: 12:56,1.000,
    Until: 16:36,0.000,
    Until: 16:38,1.000,
    Until: 17:23,0.048,
    Until: 17:28,1.000,
    Until: 21:09,0.000,
    Until: 21:11,1.000,
    Until: 21:56,0.048,
    Until: 22:01,1.000,
    Until: 22:36,0.000,
    Until: 22:38,1.000,
    Until: 23:23,0.048,
    Until: 23:28,1.000,
    Until: 23:29,0.000,
    Until: 23:31,1.000,
    Until: 24:00,0.048,
    Through: 7/16,
    For: AllDays,
    Until: 00:16,0.048,
    Until: 00:21,1.000,
    Until: 13:10,0.000,
    Until: 13:12,1.000,
    Until: 13:57,0.048,
    Until: 14:02,1.000,
    Until: 14:03,0.000,
    Until: 14:05,1.000,
    Until: 14:50,0.048,
    Until: 14:55,1.000,
    Until: 16:12,0.000,
    Until: 16:14,1.000,
    Until: 16:59,0.048,
    Until: 17:04,1.000,
    Until: 17:09,0.000,
    Until: 17:11,1.000,
    Until: 17:56,0.048,
    Until: 18:01,1.000,
    Until: 20:47,0.000,
    Until: 20:49,1.000,
    Until: 21:34,0.048,
    Until: 21:39,1.000,
    Until: 22:33,0.000,
    Until: 22:35,1.000,
    Until: 23:20,0.048,
    Until: 23:25,1.000,
    Until: 24:00,0.000,
    Through: 7/17,
    For: AllDays,
    Until: 11:45,0.000,
    Until: 11:47,1.000,
    Until: 12:32,0.048,
    Until: 12:37,1.000,
    Until: 12:38,0.000,
    Until: 12:40,1.000,
    Until: 13:25,0.048,
    Until: 13:30,1.000,
    Until: 18:06,0.000,
    Until: 18:08,1.000,
    Until: 18:53,0.048,
    Until: 18:58,1.000,
    Until: 20:00,0.000,
    Until: 20:02,1.000,
    Until: 20:47,0.048,
    Until: 20:52,1.000,
    Until: 20:53,0.000,
    Until: 20:55,1.000,
    Until: 21:40,0.048,
    Until: 21:45,1.000,
    Until: 24:00,0.000,
    Through: 7/18,
    For: AllDays,
    Until: 24:00,0.000,
    Through: 7/19,
    For: AllDays,
    Until: 24:00,0.000,
    Through: 7/20,
    For: AllDays,
    Until: 11:56,0.000,
    Until: 11:58,1.000,
    Until: 12:43,0.048,
    Until: 12:48,1.000,
    Until: 19:21,0.000,
    Until: 19:23,1.000,
    Until: 20:08,0.048,
    Until: 20:13,1.000,
    Until: 22:07,0.000,
    Until: 22:09,1.000,
    Until: 22:54,0.048,
    Until: 22:59,1.000,
    Until: 23:01,0.000,
    Until: 23:03,1.000,
    Until: 23:48,0.048,
    Until: 23:53,1.000,
    Until: 24:00,0.000,
    Through: 7/21,
    For: AllDays,
    Until: 10:41,0.000,
    Until: 10:43,1.000,
    Until: 11:28,0.048,
    Until: 11:33,1.000,
    Until: 11:42,0.000,
    Until: 11:44,1.000,
    Until: 12:29,0.048,
    Until: 12:34,1.000,
    Until: 18:24,0.000,
    Until: 18:26,1.000,
    Until: 19:11,0.048,
    Until: 19:16,1.000,
    Until: 21:01,0.000,
    Until: 21:03,1.000,
    Until: 21:48,0.048,
    Until: 21:53,1.000,
    Until: 23:25,0.000,
    Until: 23:27,1.000,
    Until: 24:00,0.048,
    Through: 7/22,
    For: AllDays,
    Until: 00:12,0.048,
    Until: 00:17,1.000,
    Until: 06:54,0.000,
    Until: 06:56,1.000,
    Until: 07:41,0.048,
    Until: 07:46,1.000,
    Until: 12:27,0.000,
    Until: 12:29,1.000,
    Until: 13:14,0.048,
    Until: 13:19,1.000,
    Until: 13:40,0.000,
    Until: 13:42,1.000,
    Until: 14:27,0.048,
    Until: 14:32,1.000,
    Until: 20:35,0.000,
    Until: 20:37,1.000,
    Until: 21:22,0.048,
    Until: 21:27,1.000,
    Until: 21:50,0.000,
    Until: 21:52,1.000,
    Until: 22:37,0.048,
    Until: 22:42,1.000,
    Until: 22:43,0.000,
    Until: 22:45,1.000,
    Until: 23:30,0.048,
    Until: 23:35,1.000,
    Until: 24:00,0.000,
    Through: 7/23,
    For: AllDays,
    Until: 12:07,0.000,
    Until: 12:09,1.000,
    Until: 12:54,0.048,
    Until: 12:59,1.000,
    Until: 13:21,0.000,
    Until: 13:23,1.000,
    Until: 14:08,0.048,
    Until: 14:13,1.000,
    Until: 16:42,0.000,
    Until: 16:44,1.000,
    Until: 17:29,0.048,
    Until: 17:34,1.000,
    Until: 21:10,0.000,
    Until: 21:12,1.000,
    Until: 21:57,0.048,
    Until: 22:02,1.000,
    Until: 22:03,0.000,
    Until: 22:05,1.000,
    Until: 22:50,0.048,
    Until: 22:55,1.000,
    Until: 24:00,0.000,
    Through: 7/24,
    For: AllDays,
    Until: 10:53,0.000,
    Until: 10:55,1.000,
    Until: 11:40,0.048,
    Until: 11:45,1.000,
    Until: 12:45,0.000,
    Until: 12:47,1.000,
    Until: 13:32,0.048,
    Until: 13:37,1.000,
    Until: 14:44,0.000,
    Until: 14:46,1.000,
    Until: 15:31,0.048,
    Until: 15:36,1.000,
    Until: 20:56,0.000,
    Until: 20:58,1.000,
    Until: 21:43,0.048,
    Until: 21:48,1.000,
    Until: 21:51,0.000,
    Until: 21:53,1.000,
    Until: 22:38,0.048,
    Until: 22:43,1.000,
    Until: 24:00,0.000,
    Through: 7/25,
    For: AllDays,
    Until: 24:00,0.000,
    Through: 7/26,
    For: AllDays,
    Until: 24:00,0.000,
    Through: 7/27,
    For: AllDays,
    Until: 11:13,0.000,
    Until: 11:15,1.000,
    Until: 12:00,0.048,
    Until: 12:05,1.000,
    Until: 21:19,0.000,
    Until: 21:21,1.000,
    Until: 22:06,0.048,
    Until: 22:11,1.000,
    Until: 24:00,0.000,
    Through: 7/28,
    For: AllDays,
    Until: 11:17,0.000,
    Until: 11:19,1.000,
    Until: 12:04,0.048,
    Until: 12:09,1.000,
    Until: 12:21,0.000,
    Until: 12:23,1.000,
    Until: 13:08,0.048,
    Until: 13:13,1.000,
    Until: 18:10,0.000,
    Until: 18:12,1.000,
    Until: 18:57,0.048,
    Until: 19:02,1.000,
    Until: 23:10,0.000,
    Until: 23:12,1.000,
    Until: 23:57,0.048,
    Until: 24:00,1.000,
    Through: 7/29,
    For: AllDays,
    Until: 00:02,1.000,
    Until: 07:55,0.000,
    Until: 07:57,1.000,
    Until: 08:42,0.048,
    Until: 08:47,1.000,
    Until: 16:01,0.000,
    Until: 16:03,1.000,
    Until: 16:48,0.048,
    Until: 16:53,1.000,
    Until: 22:16,0.000,
    Until: 22:18,1.000,
    Until: 23:03,0.048,
    Until: 23:08,1.000,
    Until: 23:09,0.000,
    Until: 23:11,1.000,
    Until: 23:56,0.048,
    Until: 24:00,1.000,
    Through: 7/30,
    For: AllDays,
    Until: 00:01,1.000,
    Until: 11:45,0.000,
    Until: 11:47,1.000,
    Until: 12:32,0.048,
    Until: 12:37,1.000,
    Until: 13:04,0.000,
    Until: 13:06,1.000,
    Until: 13:51,0.048,
    Until: 13:56,1.000,
    Until: 22:24,0.000,
    Until: 22:26,1.000,
    Until: 23:11,0.048,
    Until: 23:16,1.000,
    Until: 23:17,0.000,
    Until: 23:19,1.000,
    Until: 24:00,0.048,
    Through: 7/31,
    For: AllDays,
    Until: 00:04,0.048,
    Until: 00:09,1.000,
    Until: 11:11,0.000,
    Until: 11:13,1.000,
    Until: 11:58,0.048,
    Until: 12:03,1.000,
    Until: 16:34,0.000,
    Until: 16:36,1.000,
    Until: 17:21,0.048,
    Until: 17:26,1.000,
    Until: 18:08,0.000,
    Until: 18:10,1.000,
    Until: 18:55,0.048,
    Until: 19:00,1.000,
    Until: 20:08,0.000,
    Until: 20:10,1.000,
    Until: 20:55,0.048,
    Until: 21:00,1.000,
    Until: 21:38,0.000,
    Until: 21:40,1.000,
    Until: 22:25,0.048,
    Until: 22:30,1.000,
    Until: 22:53,0.000,
    Until: 22:55,1.000,
    Until: 23:40,0.048,
    Until: 23:45,1.000,
    Until: 24:00,0.000,
    Through: 8/1,
    For: AllDays,
    Until: 24:00,0.000,
    Through: 8/2,
    For: AllDays,
    Until: 24:00,0.000,
    Through: 8/3,
    For: AllDays,
    Until: 13:40,0.000,
    Until: 13:42,1.000,
    Until: 14:27,0.048,
    Until: 14:32,1.000,
    Until: 20:23,0.000,
    Until: 20:25,1.000,
    Until: 21:10,0.048,
    Until: 21:15,1.000,
    Until: 24:00,0.000,
    Through: 8/4,
    For: AllDays,
    Until: 06:56,0.000,
    Until: 06:58,1.000,
    Until: 07:43,0.048,
    Until: 07:48,1.000,
    Until: 19:37,0.000,
    Until: 19:39,1.000,
    Until: 20:24,0.048,
    Until: 20:29,1.000,
    Until: 21:57,0.000,
    Until: 21:59,1.000,
    Until: 22:44,0.048,
    Until: 22:49,1.000,
    Until: 24:00,0.000,
    Through: 8/5,
    For: AllDays,
    Until: 07:06,0.000,
    Until: 07:08,1.000,
    Until: 07:53,0.048,
    Until: 07:58,1.000,
    Until: 11:56,0.000,
    Until: 11:58,1.000,
    Until: 12:43,0.048,
    Until: 12:48,1.000,
    Until: 23:08,0.000,
    Until: 23:10,1.000,
    Until: 23:55,0.048,
    Until: 24:00,1.000,
    Through: 8/6,
    For: AllDays,
    Until: 00:00,1.000,
    Until: 11:38,0.000,
    Until: 11:40,1.000,
    Until: 12:25,0.048,
    Until: 12:30,1.000,
    Until: 21:27,0.000,
    Until: 21:29,1.000,
    Until: 22:14,0.048,
    Until: 22:19,1.000,
    Until: 22:49,0.000,
    Until: 22:51,1.000,
    Until: 23:36,0.048,
    Until: 23:41,1.000,
    Until: 24:00,0.000,
    Through: 8/7,
    For: AllDays,
    Until: 11:15,0.000,
    Until: 11:17,1.000,
    Until: 12:02,0.048,
    Until: 12:07,1.000,
    Until: 12:24,0.000,
    Until: 12:26,1.000,
    Until: 13:11,0.048,
    Until: 13:16,1.000,
    Until: 20:17,0.000,
    Until: 20:19,1.000,
    Until: 21:04,0.048,
    Until: 21:09,1.000,
    Until: 22:12,0.000,
    Until: 22:14,1.000,
    Until: 22:59,0.048,
    Until: 23:04,1.000,
    Until: 24:00,0.000,
    Through: 8/8,
    For: AllDays,
    Until: 24:00,0.000,
    Through: 8/9,
    For: AllDays,
    Until: 24:00,0.000,
    Through: 8/10,
    For: AllDays,
    Until: 06:10,0.000,
    Until: 06:12,1.000,
    Until: 06:57,0.048,
    Until: 07:02,1.000,
    Until: 12:18,0.000,
    Until: 12:20,1.000,
    Until: 13:05,0.048,
    Until: 13:10,1.000,
    Until: 13:21,0.000,
    Until: 13:23,1.000,
    Until: 14:08,0.048,
    Until: 14:13,1.000,
    Until: 22:48,0.000,
    Until: 22:50,1.000,
    Until: 23:35,0.048,
    Until: 23:40,1.000,
    Until: 24:00,0.000,
    Through: 8/11,
    For: AllDays,
    Until: 08:59,0.000,
    Until: 09:01,1.000,
    Until: 09:46,0.048,
    Until: 09:51,1.000,
    Until: 13:56,0.000,
    Until: 13:58,1.000,
    Until: 14:43,0.048,
    Until: 14:48,1.000,
    Until: 20:18,0.000,
    Until: 20:20,1.000,
    Until: 21:05,0.048,
    Until: 21:10,1.000,
    Until: 21:19,0.000,
    Until: 21:21,1.000,
    Until: 22:06,0.048,
    Until: 22:11,1.000,
    Until: 24:00,0.000,
    Through: 8/12,
    For: AllDays,
    Until: 07:11,0.000,
    Until: 07:13,1.000,
    Until: 07:58,0.048,
    Until: 08:03,1.000,
    Until: 18:25,0.000,
    Until: 18:27,1.000,
    Until: 19:12,0.048,
    Until: 19:17,1.000,
    Until: 20:46,0.000,
    Until: 20:48,1.000,
    Until: 21:33,0.048,
    Until: 21:38,1.000,
    Until: 22:46,0.000,
    Until: 22:48,1.000,
    Until: 23:33,0.048,
    Until: 23:38,1.000,
    Until: 24:00,0.000,
    Through: 8/13,
    For: AllDays,
    Until: 20:14,0.000,
    Until: 20:16,1.000,
    Until: 21:01,0.048,
    Until: 21:06,1.000,
    Until: 21:35,0.000,
    Until: 21:37,1.000,
    Until: 22:22,0.048,
    Until: 22:27,1.000,
    Until: 24:00,0.000,
    Through: 8/14,
    For: AllDays,
    Until: 11:08,0.000,
    Until: 11:10,1.000,
    Until: 11:55,0.048,
    Until: 12:00,1.000,
    Until: 13:48,0.000,
    Until: 13:50,1.000,
    Until: 14:35,0.048,
    Until: 14:40,1.000,
    Until: 20:46,0.000,
    Until: 20:48,1.000,
    Until: 21:33,0.048,
    Until: 21:38,1.000,
    Until: 22:34,0.000,
    Until: 22:36,1.000,
    Until: 23:21,0.048,
    Until: 23:26,1.000,
    Until: 24:00,0.000,
    Through: 8/15,
    For: AllDays,
    Until: 24:00,0.000,
    Through: 8/16,
    For: AllDays,
    Until: 24:00,0.000,
    Through: 8/17,
    For: AllDays,
    Until: 11:56,0.000,
    Until: 11:58,1.000,
    Until: 12:43,0.048,
    Until: 12:48,1.000,
    Until: 18:30,0.000,
    Until: 18:32,1.000,
    Until: 19:17,0.048,
    Until: 19:22,1.000,
    Until: 21:02,0.000,
    Until: 21:04,1.000,
    Until: 21:49,0.048,
    Until: 21:54,1.000,
    Until: 21:55,0.000,
    Until: 21:57,1.000,
    Until: 22:42,0.048,
    Until: 22:47,1.000,
    Until: 24:00,0.000,
    Through: 8/18,
    For: AllDays,
    Until: 07:50,0.000,
    Until: 07:52,1.000,
    Until: 08:37,0.048,
    Until: 08:42,1.000,
    Until: 10:39,0.000,
    Until: 10:41,1.000,
    Until: 11:26,0.048,
    Until: 11:31,1.000,
    Until: 15:59,0.000,
    Until: 16:01,1.000,
    Until: 16:46,0.048,
    Until: 16:51,1.000,
    Until: 20:38,0.000,
    Until: 20:40,1.000,
    Until: 21:25,0.048,
    Until: 21:30,1.000,
    Until: 21:55,0.000,
    Until: 21:57,1.000,
    Until: 22:42,0.048,
    Until: 22:47,1.000,
    Until: 23:29,0.000,
    Until: 23:31,1.000,
    Until: 24:00,0.048,
    Through: 8/19,
    For: AllDays,
    Until: 00:16,0.048,
    Until: 00:21,1.000,
    Until: 11:06,0.000,
    Until: 11:08,1.000,
    Until: 11:53,0.048,
    Until: 11:58,1.000,
    Until: 18:02,0.000,
    Until: 18:04,1.000,
    Until: 18:49,0.048,
    Until: 18:54,1.000,
    Until: 21:20,0.000,
    Until: 21:22,1.000,
    Until: 22:07,0.048,
    Until: 22:12,1.000,
    Until: 22:13,0.000,
    Until: 22:15,1.000,
    Until: 23:00,0.048,
    Until: 23:05,1.000,
    Until: 24:00,0.000,
    Through: 8/20,
    For: AllDays,
    Until: 11:04,0.000,
    Until: 11:06,1.000,
    Until: 11:51,0.048,
    Until: 11:56,1.000,
    Until: 13:22,0.000,
    Until: 13:24,1.000,
    Until: 14:09,0.048,
    Until: 14:14,1.000,
    Until: 16:50,0.000,
    Until: 16:52,1.000,
    Until: 17:37,0.048,
    Until: 17:42,1.000,
    Until: 20:35,0.000,
    Until: 20:37,1.000,
    Until: 21:22,0.048,
    Until: 21:27,1.000,
    Until: 21:28,0.000,
    Until: 21:30,1.000,
    Until: 22:15,0.048,
    Until: 22:20,1.000,
    Until: 24:00,0.000,
    Through: 8/21,
    For: AllDays,
    Until: 12:38,0.000,
    Until: 12:40,1.000,
    Until: 13:25,0.048,
    Until: 13:30,1.000,
    Until: 17:22,0.000,
    Until: 17:24,1.000,
    Until: 18:09,0.048,
    Until: 18:14,1.000,
    Until: 22:00,0.000,
    Until: 22:02,1.000,
    Until: 22:47,0.048,
    Until: 22:52,1.000,
    Until: 22:56,0.000,
    Until: 22:58,1.000,
    Until: 23:43,0.048,
    Until: 23:48,1.000,
    Until: 24:00,0.000,
    Through: 8/22,
    For: AllDays,
    Until: 24:00,0.000,
    Through: 8/23,
    For: AllDays,
    Until: 24:00,0.000,
    Through: 8/24,
    For: AllDays,
    Until: 09:55,0.000,
    Until: 09:57,1.000,
    Until: 10:42,0.048,
    Until: 10:47,1.000,
    Until: 11:28,0.000,
    Until: 11:30,1.000,
    Until: 12:15,0.048,
    Until: 12:20,1.000,
    Until: 12:45,0.000,
    Until: 12:47,1.000,
    Until: 13:32,0.048,
    Until: 13:37,1.000,
    Until: 19:47,0.000,
    Until: 19:49,1.000,
    Until: 20:34,0.048,
    Until: 20:39,1.000,
    Until: 20:57,0.000,
    Until: 20:59,1.000,
    Until: 21:44,0.048,
    Until: 21:49,1.000,
    Until: 24:00,0.000,
    Through: 8/25,
    For: AllDays,
    Until: 07:05,0.000,
    Until: 07:07,1.000,
    Until: 07:52,0.048,
    Until: 07:57,1.000,
    Until: 13:07,0.000,
    Until: 13:09,1.000,
    Until: 13:54,0.048,
    Until: 13:59,1.000,
    Until: 22:07,0.000,
    Until: 22:09,1.000,
    Until: 22:54,0.048,
    Until: 22:59,1.000,
    Until: 23:21,0.000,
    Until: 23:23,1.000,
    Until: 24:00,0.048,
    Through: 8/26,
    For: AllDays,
    Until: 00:08,0.048,
    Until: 00:13,1.000,
    Until: 15:22,0.000,
    Until: 15:24,1.000,
    Until: 16:09,0.048,
    Until: 16:14,1.000,
    Until: 18:27,0.000,
    Until: 18:29,1.000,
    Until: 19:14,0.048,
    Until: 19:19,1.000,
    Until: 19:30,0.000,
    Until: 19:32,1.000,
    Until: 20:17,0.048,
    Until: 20:22,1.000,
    Until: 21:17,0.000,
    Until: 21:19,1.000,
    Until: 22:04,0.048,
    Until: 22:09,1.000,
    Until: 23:05,0.000,
    Until: 23:07,1.000,
    Until: 23:52,0.048,
    Until: 23:57,1.000,
    Until: 24:00,0.000,
    Through: 8/27,
    For: AllDays,
    Until: 08:48,0.000,
    Until: 08:50,1.000,
    Until: 09:35,0.048,
    Until: 09:40,1.000,
    Until: 11:33,0.000,
    Until: 11:35,1.000,
    Until: 12:20,0.048,
    Until: 12:25,1.000,
    Until: 12:49,0.000,
    Until: 12:51,1.000,
    Until: 13:36,0.048,
    Until: 13:41,1.000,
    Until: 16:29,0.000,
    Until: 16:31,1.000,
    Until: 17:16,0.048,
    Until: 17:21,1.000,
    Until: 22:11,0.000,
    Until: 22:13,1.000,
    Until: 22:58,0.048,
    Until: 23:03,1.000,
    Until: 24:00,0.000,
    Through: 8/28,
    For: AllDays,
    Until: 12:19,0.000,
    Until: 12:21,1.000,
    Until: 13:06,0.048,
    Until: 13:11,1.000,
    Until: 15:18,0.000,
    Until: 15:20,1.000,
    Until: 16:05,0.048,
    Until: 16:10,1.000,
    Until: 20:08,0.000,
    Until: 20:10,1.000,
    Until: 20:55,0.048,
    Until: 21:00,1.000,
    Until: 21:43,0.000,
    Until: 21:45,1.000,
    Until: 22:30,0.048,
    Until: 22:35,1.000,
    Until: 24:00,0.000,
    Through: 8/29,
    For: AllDays,
    Until: 24:00,0.000,
    Through: 8/30,
    For: AllDays,
    Until: 24:00,0.000,
    Through: 8/31,
    For: AllDays,
    Until: 06:17,0.000,
    Until: 06:19,1.000,
    Until: 07:04,0.048,
    Until: 07:09,1.000,
    Until: 10:37,0.000,
    Until: 10:39,1.000,
    Until: 11:24,0.048,
    Until: 11:29,1.000,
    Until: 15:40,0.000,
    Until: 15:42,1.000,
    Until: 16:27,0.048,
    Until: 16:32,1.000,
    Until: 20:11,0.000,
    Until: 20:13,1.000,
    Until: 20:58,0.048,
    Until: 21:03,1.000,
    Until: 21:20,0.000,
    Until: 21:22,1.000,
    Until: 22:07,0.048,
    Until: 22:12,1.000,
    Until: 24:00,0.000,
    Through: 9/1,
    For: AllDays,
    Until: 07:38,0.000,
    Until: 07:40,1.000,
    Until: 08:25,0.048,
    Until: 08:30,1.000,
    Until: 12:57,0.000,
    Until: 12:59,1.000,
    Until: 13:44,0.048,
    Until: 13:49,1.000,
    Until: 21:10,0.000,
    Until: 21:12,1.000,
    Until: 21:57,0.048,
    Until: 22:02,1.000,
    Until: 22:39,0.000,
    Until: 22:41,1.000,
    Until: 23:26,0.048,
    Until: 23:31,1.000,
    Until: 24:00,0.000,
    Through: 9/2,
    For: AllDays,
    Until: 11:11,0.000,
    Until: 11:13,1.000,
    Until: 11:58,0.048,
    Until: 12:03,1.000,
    Until: 18:16,0.000,
    Until: 18:18,1.000,
    Until: 19:03,0.048,
    Until: 19:08,1.000,
    Until: 20:42,0.000,
    Until: 20:44,1.000,
    Until: 21:29,0.048,
    Until: 21:34,1.000,
    Until: 24:00,0.000,
    Through: 9/3,
    For: AllDays,
    Until: 13:01,0.000,
    Until: 13:03,1.000,
    Until: 13:48,0.048,
    Until: 13:53,1.000,
    Until: 19:43,0.000,
    Until: 19:45,1.000,
    Until: 20:30,0.048,
    Until: 20:35,1.000,
    Until: 21:07,0.000,
    Until: 21:09,1.000,
    Until: 21:54,0.048,
    Until: 21:59,1.000,
    Until: 24:00,0.000,
    Through: 9/4,
    For: AllDays,
    Until: 08:05,0.000,
    Until: 08:07,1.000,
    Until: 08:52,0.048,
    Until: 08:57,1.000,
    Until: 11:15,0.000,
    Until: 11:17,1.000,
    Until: 12:02,0.048,
    Until: 12:07,1.000,
    Until: 23:23,0.000,
    Until: 23:25,1.000,
    Until: 24:00,0.048,
    Through: 9/5,
    For: AllDays,
    Until: 00:10,0.048,
    Until: 00:15,1.000,
    Until: 24:00,0.000,
    Through: 9/6,
    For: AllDays,
    Until: 24:00,0.000,
    Through: 9/7,
    For: AllDays,
    Until: 12:00,0.000,
    Until: 12:02,1.000,
    Until: 12:47,0.048,
    Until: 12:52,1.000,
    Until: 16:40,0.000,
    Until: 16:42,1.000,
    Until: 17:27,0.048,
    Until: 17:32,1.000,
    Until: 19:45,0.000,
    Until: 19:47,1.000,
    Until: 20:32,0.048,
    Until: 20:37,1.000,
    Until: 22:31,0.000,
    Until: 22:33,1.000,
    Until: 23:18,0.048,
    Until: 23:23,1.000,
    Until: 23:24,0.000,
    Until: 23:26,1.000,
    Until: 24:00,0.048,
    Through: 9/8,
    For: AllDays,
    Until: 00:11,0.048,
    Until: 00:16,1.000,
    Until: 12:37,0.000,
    Until: 12:39,1.000,
    Until: 13:24,0.048,
    Until: 13:29,1.000,
    Until: 16:05,0.000,
    Until: 16:07,1.000,
    Until: 16:52,0.048,
    Until: 16:57,1.000,
    Until: 20:28,0.000,
    Until: 20:30,1.000,
    Until: 21:15,0.048,
    Until: 21:20,1.000,
    Until: 21:44,0.000,
    Until: 21:46,1.000,
    Until: 22:31,0.048,
    Until: 22:36,1.000,
    Until: 22:37,0.000,
    Until: 22:39,1.000,
    Until: 23:24,0.048,
    Until: 23:29,1.000,
    Until: 24:00,0.000,
    Through: 9/9,
    For: AllDays,
    Until: 08:57,0.000,
    Until: 08:59,1.000,
    Until: 09:44,0.048,
    Until: 09:49,1.000,
    Until: 10:42,0.000,
    Until: 10:44,1.000,
    Until: 11:29,0.048,
    Until: 11:34,1.000,
    Until: 17:22,0.000,
    Until: 17:24,1.000,
    Until: 18:09,0.048,
    Until: 18:14,1.000,
    Until: 20:27,0.000,
    Until: 20:29,1.000,
    Until: 21:14,0.048,
    Until: 21:19,1.000,
    Until: 21:22,0.000,
    Until: 21:24,1.000,
    Until: 22:09,0.048,
    Until: 22:14,1.000,
    Until: 23:42,0.000,
    Until: 23:44,1.000,
    Until: 24:00,0.048,
    Through: 9/10,
    For: AllDays,
    Until: 00:29,0.048,
    Until: 00:34,1.000,
    Until: 07:37,0.000,
    Until: 07:39,1.000,
    Until: 08:24,0.048,
    Until: 08:29,1.000,
    Until: 11:45,0.000,
    Until: 11:47,1.000,
    Until: 12:32,0.048,
    Until: 12:37,1.000,
    Until: 12:38,0.000,
    Until: 12:40,1.000,
    Until: 13:25,0.048,
    Until: 13:30,1.000,
    Until: 15:40,0.000,
    Until: 15:42,1.000,
    Until: 16:27,0.048,
    Until: 16:32,1.000,
    Until: 17:17,0.000,
    Until: 17:19,1.000,
    Until: 18:04,0.048,
    Until: 18:09,1.000,
    Until: 20:11,0.000,
    Until: 20:13,1.000,
    Until: 20:58,0.048,
    Until: 21:03,1.000,
    Until: 22:51,0.000,
    Until: 22:53,1.000,
    Until: 23:38,0.048,
    Until: 23:43,1.000,
    Until: 24:00,0.000,
    Through: 9/11,
    For: AllDays,
    Until: 08:31,0.000,
    Until: 08:33,1.000,
    Until: 09:18,0.048,
    Until: 09:23,1.000,
    Until: 11:43,0.000,
    Until: 11:45,1.000,
    Until: 12:30,0.048,
    Until: 12:35,1.000,
    Until: 12:52,0.000,
    Until: 12:54,1.000,
    Until: 13:39,0.048,
    Until: 13:44,1.000,
    Until: 14:10,0.000,
    Until: 14:12,1.000,
    Until: 14:57,0.048,
    Until: 15:02,1.000,
    Until: 15:29,0.000,
    Until: 15:31,1.000,
    Until: 16:16,0.048,
    Until: 16:21,1.000,
    Until: 21:34,0.000,
    Until: 21:36,1.000,
    Until: 22:21,0.048,
    Until: 22:26,1.000,
    Until: 23:11,0.000,
    Until: 23:13,1.000,
    Until: 23:58,0.048,
    Until: 24:00,1.000,
    Through: 9/12,
    For: AllDays,
    Until: 00:03,1.000,
    Until: 24:00,0.000,
    Through: 9/13,
    For: AllDays,
    Until: 24:00,0.000,
    Through: 9/14,
    For: AllDays,
    Until: 06:51,0.000,
    Until: 06:53,1.000,
    Until: 07:38,0.048,
    Until: 07:43,1.000,
    Until: 12:45,0.000,
    Until: 12:47,1.000,
    Until: 13:32,0.048,
    Until: 13:37,1.000,
    Until: 19:34,0.000,
    Until: 19:36,1.000,
    Until: 20:21,0.048,
    Until: 20:26,1.000,
    Until: 21:12,0.000,
    Until: 21:14,1.000,
    Until: 21:59,0.048,
    Until: 22:04,1.000,
    Until: 23:16,0.000,
    Until: 23:18,1.000,
    Until: 24:00,0.048,
    Through: 9/15,
    For: AllDays,
    Until: 00:03,0.048,
    Until: 00:08,1.000,
    Until: 06:11,0.000,
    Until: 06:13,1.000,
    Until: 06:58,0.048,
    Until: 07:03,1.000,
    Until: 12:22,0.000,
    Until: 12:24,1.000,
    Until: 13:09,0.048,
    Until: 13:14,1.000,
    Until: 16:46,0.000,
    Until: 16:48,1.000,
    Until: 17:33,0.048,
    Until: 17:38,1.000,
    Until: 20:46,0.000,
    Until: 20:48,1.000,
    Until: 21:33,0.048,
    Until: 21:38,1.000,
    Until: 21:39,0.000,
    Until: 21:41,1.000,
    Until: 22:26,0.048,
    Until: 22:31,1.000,
    Until: 24:00,0.000,
    Through: 9/16,
    For: AllDays,
    Until: 07:13,0.000,
    Until: 07:15,1.000,
    Until: 08:00,0.048,
    Until: 08:05,1.000,
    Until: 10:35,0.000,
    Until: 10:37,1.000,
    Until: 11:22,0.048,
    Until: 11:27,1.000,
    Until: 12:49,0.000,
    Until: 12:51,1.000,
    Until: 13:36,0.048,
    Until: 13:41,1.000,
    Until: 18:09,0.000,
    Until: 18:11,1.000,
    Until: 18:56,0.048,
    Until: 19:01,1.000,
    Until: 20:25,0.000,
    Until: 20:27,1.000,
    Until: 21:12,0.048,
    Until: 21:17,1.000,
    Until: 21:18,0.000,
    Until: 21:20,1.000,
    Until: 22:05,0.048,
    Until: 22:10,1.000,
    Until: 22:34,0.000,
    Until: 22:36,1.000,
    Until: 23:21,0.048,
    Until: 23:26,1.000,
    Until: 24:00,0.000,
    Through: 9/17,
    For: AllDays,
    Until: 08:19,0.000,
    Until: 08:21,1.000,
    Until: 09:06,0.048,
    Until: 09:11,1.000,
    Until: 12:03,0.000,
    Until: 12:05,1.000,
    Until: 12:50,0.048,
    Until: 12:55,1.000,
    Until: 17:52,0.000,
    Until: 17:54,1.000,
    Until: 18:39,0.048,
    Until: 18:44,1.000,
    Until: 20:22,0.000,
    Until: 20:24,1.000,
    Until: 21:09,0.048,
    Until: 21:14,1.000,
    Until: 22:17,0.000,
    Until: 22:19,1.000,
    Until: 23:04,0.048,
    Until: 23:09,1.000,
    Until: 23:42,0.000,
    Until: 23:44,1.000,
    Until: 24:00,0.048,
    Through: 9/18,
    For: AllDays,
    Until: 00:29,0.048,
    Until: 00:34,1.000,
    Until: 08:41,0.000,
    Until: 08:43,1.000,
    Until: 09:28,0.048,
    Until: 09:33,1.000,
    Until: 14:43,0.000,
    Until: 14:45,1.000,
    Until: 15:30,0.048,
    Until: 15:35,1.000,
    Until: 18:08,0.000,
    Until: 18:10,1.000,
    Until: 18:55,0.048,
    Until: 19:00,1.000,
    Until: 20:40,0.000,
    Until: 20:42,1.000,
    Until: 21:27,0.048,
    Until: 21:32,1.000,
    Until: 21:33,0.000,
    Until: 21:35,1.000,
    Until: 22:20,0.048,
    Until: 22:25,1.000,
    Until: 22:26,0.000,
    Until: 22:28,1.000,
    Until: 23:13,0.048,
    Until: 23:18,1.000,
    Until: 24:00,0.000,
    Through: 9/19,
    For: AllDays,
    Until: 24:00,0.000,
    Through: 9/20,
    For: AllDays,
    Until: 24:00,0.000,
    Through: 9/21,
    For: AllDays,
    Until: 12:16,0.000,
    Until: 12:18,1.000,
    Until: 13:03,0.048,
    Until: 13:08,1.000,
    Until: 15:39,0.000,
    Until: 15:41,1.000,
    Until: 16:26,0.048,
    Until: 16:31,1.000,
    Until: 18:34,0.000,
    Until: 18:36,1.000,
    Until: 19:21,0.048,
    Until: 19:26,1.000,
    Until: 21:23,0.000,
    Until: 21:25,1.000,
    Until: 22:10,0.048,
    Until: 22:15,1.000,
    Until: 22:48,0.000,
    Until: 22:50,1.000,
    Until: 23:35,0.048,
    Until: 23:40,1.000,
    Until: 24:00,0.000,
    Through: 9/22,
    For: AllDays,
    Until: 09:04,0.000,
    Until: 09:06,1.000,
    Until: 09:51,0.048,
    Until: 09:56,1.000,
    Until: 11:19,0.000,
    Until: 11:21,1.000,
    Until: 12:06,0.048,
    Until: 12:11,1.000,
    Until: 15:45,0.000,
    Until: 15:47,1.000,
    Until: 16:32,0.048,
    Until: 16:37,1.000,
    Until: 20:35,0.000,
    Until: 20:37,1.000,
    Until: 21:22,0.048,
    Until: 21:27,1.000,
    Until: 22:15,0.000,
    Until: 22:17,1.000,
    Until: 23:02,0.048,
    Until: 23:07,1.000,
    Until: 24:00,0.000,
    Through: 9/23,
    For: AllDays,
    Until: 07:50,0.000,
    Until: 07:52,1.000,
    Until: 08:37,0.048,
    Until: 08:42,1.000,
    Until: 10:27,0.000,
    Until: 10:29,1.000,
    Until: 11:14,0.048,
    Until: 11:19,1.000,
    Until: 12:47,0.000,
    Until: 12:49,1.000,
    Until: 13:34,0.048,
    Until: 13:39,1.000,
    Until: 16:28,0.000,
    Until: 16:30,1.000,
    Until: 17:15,0.048,
    Until: 17:20,1.000,
    Until: 18:50,0.000,
    Until: 18:52,1.000,
    Until: 19:37,0.048,
    Until: 19:42,1.000,
    Until: 21:39,0.000,
    Until: 21:41,1.000,
    Until: 22:26,0.048,
    Until: 22:31,1.000,
    Until: 22:32,0.000,
    Until: 22:34,1.000,
    Until: 23:19,0.048,
    Until: 23:24,1.000,
    Until: 24:00,0.000,
    Through: 9/24,
    For: AllDays,
    Until: 10:18,0.000,
    Until: 10:20,1.000,
    Until: 11:05,0.048,
    Until: 11:10,1.000,
    Until: 12:16,0.000,
    Until: 12:18,1.000,
    Until: 13:03,0.048,
    Until: 13:08,1.000,
    Until: 15:06,0.000,
    Until: 15:08,1.000,
    Until: 15:53,0.048,
    Until: 15:58,1.000,
    Until: 19:59,0.000,
    Until: 20:01,1.000,
    Until: 20:46,0.048,
    Until: 20:51,1.000,
    Until: 20:52,0.000,
    Until: 20:54,1.000,
    Until: 21:39,0.048,
    Until: 21:44,1.000,
    Until: 22:26,0.000,
    Until: 22:28,1.000,
    Until: 23:13,0.048,
    Until: 23:18,1.000,
    Until: 24:00,0.000,
    Through: 9/25,
    For: AllDays,
    Until: 06:10,0.000,
    Until: 06:12,1.000,
    Until: 06:57,0.048,
    Until: 07:02,1.000,
    Until: 11:18,0.000,
    Until: 11:20,1.000,
    Until: 12:05,0.048,
    Until: 12:10,1.000,
    Until: 15:40,0.000,
    Until: 15:42,1.000,
    Until: 16:27,0.048,
    Until: 16:32,1.000,
    Until: 20:13,0.000,
    Until: 20:15,1.000,
    Until: 21:00,0.048,
    Until: 21:05,1.000,
    Until: 22:07,0.000,
    Until: 22:09,1.000,
    Until: 22:54,0.048,
    Until: 22:59,1.000,
    Until: 24:00,0.000,
    Through: 9/26,
    For: AllDays,
    Until: 24:00,0.000,
    Through: 9/27,
    For: AllDays,
    Until: 24:00,0.000,
    Through: 9/28,
    For: AllDays,
    Until: 08:30,0.000,
    Until: 08:32,1.000,
    Until: 09:17,0.048,
    Until: 09:22,1.000,
    Until: 11:30,0.000,
    Until: 11:32,1.000,
    Until: 12:17,0.048,
    Until: 12:22,1.000,
    Until: 15:49,0.000,
    Until: 15:51,1.000,
    Until: 16:36,0.048,
    Until: 16:41,1.000,
    Until: 21:01,0.000,
    Until: 21:03,1.000,
    Until: 21:48,0.048,
    Until: 21:53,1.000,
    Until: 22:56,0.000,
    Until: 22:58,1.000,
    Until: 23:43,0.048,
    Until: 23:48,1.000,
    Until: 24:00,0.000,
    Through: 9/29,
    For: AllDays,
    Until: 11:33,0.000,
    Until: 11:35,1.000,
    Until: 12:20,0.048,
    Until: 12:25,1.000,
    Until: 13:31,0.000,
    Until: 13:33,1.000,
    Until: 14:18,0.048,
    Until: 14:23,1.000,
    Until: 15:23,0.000,
    Until: 15:25,1.000,
    Until: 16:10,0.048,
    Until: 16:15,1.000,
    Until: 19:55,0.000,
    Until: 19:57,1.000,
    Until: 20:42,0.048,
    Until: 20:47,1.000,
    Until: 23:18,0.000,
    Until: 23:20,1.000,
    Until: 24:00,0.048,
    Through: 9/30,
    For: AllDays,
    Until: 00:05,0.048,
    Until: 00:10,1.000,
    Until: 06:16,0.000,
    Until: 06:18,1.000,
    Until: 07:03,0.048,
    Until: 07:08,1.000,
    Until: 12:37,0.000,
    Until: 12:39,1.000,
    Until: 13:24,0.048,
    Until: 13:29,1.000,
    Until: 21:59,0.000,
    Until: 22:01,1.000,
    Until: 22:46,0.048,
    Until: 22:51,1.000,
    Until: 22:56,0.000,
    Until: 22:58,1.000,
    Until: 23:43,0.048,
    Until: 23:48,1.000,
    Until: 24:00,0.000,
    Through: 10/1,
    For: AllDays,
    Until: 11:31,0.000,
    Until: 11:33,1.000,
    Until: 12:18,0.048,
    Until: 12:23,1.000,
    Until: 13:28,0.000,
    Until: 13:30,1.000,
    Until: 14:15,0.048,
    Until: 14:20,1.000,
    Until: 16:44,0.000,
    Until: 16:46,1.000,
    Until: 17:31,0.048,
    Until: 17:36,1.000,
    Until: 17:39,0.000,
    Until: 17:41,1.000,
    Until: 18:26,0.048,
    Until: 18:31,1.000,
    Until: 21:03,0.000,
    Until: 21:05,1.000,
    Until: 21:50,0.048,
    Until: 21:55,1.000,
    Until: 22:11,0.000,
    Until: 22:13,1.000,
    Until: 22:58,0.048,
    Until: 23:03,1.000,
    Until: 23:04,0.000,
    Until: 23:06,1.000,
    Until: 23:51,0.048,
    Until: 23:56,1.000,
    Until: 24:00,0.000,
    Through: 10/2,
    For: AllDays,
    Until: 08:44,0.000,
    Until: 08:46,1.000,
    Until: 09:31,0.048,
    Until: 09:36,1.000,
    Until: 12:42,0.000,
    Until: 12:44,1.000,
    Until: 13:29,0.048,
    Until: 13:34,1.000,
    Until: 16:46,0.000,
    Until: 16:48,1.000,
    Until: 17:33,0.048,
    Until: 17:38,1.000,
    Until: 20:29,0.000,
    Until: 20:31,1.000,
    Until: 21:16,0.048,
    Until: 21:21,1.000,
    Until: 23:18,0.000,
    Until: 23:20,1.000,
    Until: 24:00,0.048,
    Through: 10/3,
    For: AllDays,
    Until: 00:05,0.048,
    Until: 00:10,1.000,
    Until: 24:00,0.000,
    Through: 10/4,
    For: AllDays,
    Until: 24:00,0.000,
    Through: 10/5,
    For: AllDays,
    Until: 06:38,0.000,
    Until: 06:40,1.000,
    Until: 07:25,0.048,
    Until: 07:30,1.000,
    Until: 07:55,0.000,
    Until: 07:57,1.000,
    Until: 08:42,0.048,
    Until: 08:47,1.000,
    Until: 11:08,0.000,
    Until: 11:10,1.000,
    Until: 11:55,0.048,
    Until: 12:00,1.000,
    Until: 12:28,0.000,
    Until: 12:30,1.000,
    Until: 13:15,0.048,
    Until: 13:20,1.000,
    Until: 18:12,0.000,
    Until: 18:14,1.000,
    Until: 18:59,0.048,
    Until: 19:04,1.000,
    Until: 20:45,0.000,
    Until: 20:47,1.000,
    Until: 21:32,0.048,
    Until: 21:37,1.000,
    Until: 22:15,0.000,
    Until: 22:17,1.000,
    Until: 23:02,0.048,
    Until: 23:07,1.000,
    Until: 24:00,0.000,
    Through: 10/6,
    For: AllDays,
    Until: 10:50,0.000,
    Until: 10:52,1.000,
    Until: 11:37,0.048,
    Until: 11:42,1.000,
    Until: 13:22,0.000,
    Until: 13:24,1.000,
    Until: 14:09,0.048,
    Until: 14:14,1.000,
    Until: 16:04,0.000,
    Until: 16:06,1.000,
    Until: 16:51,0.048,
    Until: 16:56,1.000,
    Until: 20:14,0.000,
    Until: 20:16,1.000,
    Until: 21:01,0.048,
    Until: 21:06,1.000,
    Until: 21:07,0.000,
    Until: 21:09,1.000,
    Until: 21:54,0.048,
    Until: 21:59,1.000,
    Until: 23:07,0.000,
    Until: 23:09,1.000,
    Until: 23:54,0.048,
    Until: 23:59,1.000,
    Until: 24:00,0.000,
    Through: 10/7,
    For: AllDays,
    Until: 11:27,0.000,
    Until: 11:29,1.000,
    Until: 12:14,0.048,
    Until: 12:19,1.000,
    Until: 12:59,0.000,
    Until: 13:01,1.000,
    Until: 13:46,0.048,
    Until: 13:51,1.000,
    Until: 20:56,0.000,
    Until: 20:58,1.000,
    Until: 21:43,0.048,
    Until: 21:48,1.000,
    Until: 21:50,0.000,
    Until: 21:52,1.000,
    Until: 22:37,0.048,
    Until: 22:42,1.000,
    Until: 24:00,0.000,
    Through: 10/8,
    For: AllDays,
    Until: 12:29,0.000,
    Until: 12:31,1.000,
    Until: 13:16,0.048,
    Until: 13:21,1.000,
    Until: 18:00,0.000,
    Until: 18:02,1.000,
    Until: 18:47,0.048,
    Until: 18:52,1.000,
    Until: 21:43,0.000,
    Until: 21:45,1.000,
    Until: 22:30,0.048,
    Until: 22:35,1.000,
    Until: 23:06,0.000,
    Until: 23:08,1.000,
    Until: 23:53,0.048,
    Until: 23:58,1.000,
    Until: 24:00,0.000,
    Through: 10/9,
    For: AllDays,
    Until: 07:43,0.000,
    Until: 07:45,1.000,
    Until: 08:30,0.048,
    Until: 08:35,1.000,
    Until: 10:06,0.000,
    Until: 10:08,1.000,
    Until: 10:53,0.048,
    Until: 10:58,1.000,
    Until: 14:58,0.000,
    Until: 15:00,1.000,
    Until: 15:45,0.048,
    Until: 15:50,1.000,
    Until: 20:47,0.000,
    Until: 20:49,1.000,
    Until: 21:34,0.048,
    Until: 21:39,1.000,
    Until: 21:42,0.000,
    Until: 21:44,1.000,
    Until: 22:29,0.048,
    Until: 22:34,1.000,
    Until: 22:45,0.000,
    Until: 22:47,1.000,
    Until: 23:32,0.048,
    Until: 23:37,1.000,
    Until: 24:00,0.000,
    Through: 10/10,
    For: AllDays,
    Until: 24:00,0.000,
    Through: 10/11,
    For: AllDays,
    Until: 24:00,0.000,
    Through: 10/12,
    For: AllDays,
    Until: 12:18,0.000,
    Until: 12:20,1.000,
    Until: 13:05,0.048,
    Until: 13:10,1.000,
    Until: 16:33,0.000,
    Until: 16:35,1.000,
    Until: 17:20,0.048,
    Until: 17:25,1.000,
    Until: 18:13,0.000,
    Until: 18:15,1.000,
    Until: 19:00,0.048,
    Until: 19:05,1.000,
    Until: 20:46,0.000,
    Until: 20:48,1.000,
    Until: 21:33,0.048,
    Until: 21:38,1.000,
    Until: 21:39,0.000,
    Until: 21:41,1.000,
    Until: 22:26,0.048,
    Until: 22:31,1.000,
    Until: 24:00,0.000,
    Through: 10/13,
    For: AllDays,
    Until: 11:33,0.000,
    Until: 11:35,1.000,
    Until: 12:20,0.048,
    Until: 12:25,1.000,
    Until: 18:14,0.000,
    Until: 18:16,1.000,
    Until: 19:01,0.048,
    Until: 19:06,1.000,
    Until: 19:41,0.000,
    Until: 19:43,1.000,
    Until: 20:28,0.048,
    Until: 20:33,1.000,
    Until: 21:43,0.000,
    Until: 21:45,1.000,
    Until: 22:30,0.048,
    Until: 22:35,1.000,
    Until: 24:00,0.000,
    Through: 10/14,
    For: AllDays,
    Until: 11:26,0.000,
    Until: 11:28,1.000,
    Until: 12:13,0.048,
    Until: 12:18,1.000,
    Until: 16:44,0.000,
    Until: 16:46,1.000,
    Until: 17:31,0.048,
    Until: 17:36,1.000,
    Until: 18:45,0.000,
    Until: 18:47,1.000,
    Until: 19:32,0.048,
    Until: 19:37,1.000,
    Until: 21:20,0.000,
    Until: 21:22,1.000,
    Until: 22:07,0.048,
    Until: 22:12,1.000,
    Until: 24:00,0.000,
    Through: 10/15,
    For: AllDays,
    Until: 12:02,0.000,
    Until: 12:04,1.000,
    Until: 12:49,0.048,
    Until: 12:54,1.000,
    Until: 15:12,0.000,
    Until: 15:14,1.000,
    Until: 15:59,0.048,
    Until: 16:04,1.000,
    Until: 20:58,0.000,
    Until: 21:00,1.000,
    Until: 21:45,0.048,
    Until: 21:50,1.000,
    Until: 22:44,0.000,
    Until: 22:46,1.000,
    Until: 23:31,0.048,
    Until: 23:36,1.000,
    Until: 23:37,0.000,
    Until: 23:39,1.000,
    Until: 24:00,0.048,
    Through: 10/16,
    For: AllDays,
    Until: 00:24,0.048,
    Until: 00:29,1.000,
    Until: 07:46,0.000,
    Until: 07:48,1.000,
    Until: 08:33,0.048,
    Until: 08:38,1.000,
    Until: 10:57,0.000,
    Until: 10:59,1.000,
    Until: 11:44,0.048,
    Until: 11:49,1.000,
    Until: 12:21,0.000,
    Until: 12:23,1.000,
    Until: 13:08,0.048,
    Until: 13:13,1.000,
    Until: 16:33,0.000,
    Until: 16:35,1.000,
    Until: 17:20,0.048,
    Until: 17:25,1.000,
    Until: 18:22,0.000,
    Until: 18:24,1.000,
    Until: 19:09,0.048,
    Until: 19:14,1.000,
    Until: 20:40,0.000,
    Until: 20:42,1.000,
    Until: 21:27,0.048,
    Until: 21:32,1.000,
    Until: 21:36,0.000,
    Until: 21:38,1.000,
    Until: 22:23,0.048,
    Until: 22:28,1.000,
    Until: 24:00,0.000,
    Through: 10/17,
    For: AllDays,
    Until: 24:00,0.000,
    Through: 10/18,
    For: AllDays,
    Until: 24:00,0.000,
    Through: 10/19,
    For: AllDays,
    Until: 07:34,0.000,
    Until: 07:36,1.000,
    Until: 08:21,0.048,
    Until: 08:26,1.000,
    Until: 11:18,0.000,
    Until: 11:20,1.000,
    Until: 12:05,0.048,
    Until: 12:10,1.000,
    Until: 13:21,0.000,
    Until: 13:23,1.000,
    Until: 14:08,0.048,
    Until: 14:13,1.000,
    Until: 16:44,0.000,
    Until: 16:46,1.000,
    Until: 17:31,0.048,
    Until: 17:36,1.000,
    Until: 20:21,0.000,
    Until: 20:23,1.000,
    Until: 21:08,0.048,
    Until: 21:13,1.000,
    Until: 23:01,0.000,
    Until: 23:03,1.000,
    Until: 23:48,0.048,
    Until: 23:53,1.000,
    Until: 24:00,0.000,
    Through: 10/20,
    For: AllDays,
    Until: 12:37,0.000,
    Until: 12:39,1.000,
    Until: 13:24,0.048,
    Until: 13:29,1.000,
    Until: 13:34,0.000,
    Until: 13:36,1.000,
    Until: 14:21,0.048,
    Until: 14:26,1.000,
    Until: 14:49,0.000,
    Until: 14:51,1.000,
    Until: 15:36,0.048,
    Until: 15:41,1.000,
    Until: 19:55,0.000,
    Until: 19:57,1.000,
    Until: 20:42,0.048,
    Until: 20:47,1.000,
    Until: 21:27,0.000,
    Until: 21:29,1.000,
    Until: 22:14,0.048,
    Until: 22:19,1.000,
    Until: 22:20,0.000,
    Until: 22:22,1.000,
    Until: 23:07,0.048,
    Until: 23:12,1.000,
    Until: 24:00,0.000,
    Through: 10/21,
    For: AllDays,
    Until: 07:35,0.000,
    Until: 07:37,1.000,
    Until: 08:22,0.048,
    Until: 08:27,1.000,
    Until: 12:05,0.000,
    Until: 12:07,1.000,
    Until: 12:52,0.048,
    Until: 12:57,1.000,
    Until: 17:56,0.000,
    Until: 17:58,1.000,
    Until: 18:43,0.048,
    Until: 18:48,1.000,
    Until: 20:39,0.000,
    Until: 20:41,1.000,
    Until: 21:26,0.048,
    Until: 21:31,1.000,
    Until: 23:12,0.000,
    Until: 23:14,1.000,
    Until: 23:59,0.048,
    Until: 24:00,1.000,
    Through: 10/22,
    For: AllDays,
    Until: 00:04,1.000,
    Until: 10:19,0.000,
    Until: 10:21,1.000,
    Until: 11:06,0.048,
    Until: 11:11,1.000,
    Until: 12:27,0.000,
    Until: 12:29,1.000,
    Until: 13:14,0.048,
    Until: 13:19,1.000,
    Until: 13:22,0.000,
    Until: 13:24,1.000,
    Until: 14:09,0.048,
    Until: 14:14,1.000,
    Until: 15:26,0.000,
    Until: 15:28,1.000,
    Until: 16:13,0.048,
    Until: 16:18,1.000,
    Until: 16:39,0.000,
    Until: 16:41,1.000,
    Until: 17:26,0.048,
    Until: 17:31,1.000,
    Until: 20:52,0.000,
    Until: 20:54,1.000,
    Until: 21:39,0.048,
    Until: 21:44,1.000,
    Until: 22:26,0.000,
    Until: 22:28,1.000,
    Until: 23:13,0.048,
    Until: 23:18,1.000,
    Until: 24:00,0.000,
    Through: 10/23,
    For: AllDays,
    Until: 08:58,0.000,
    Until: 09:00,1.000,
    Until: 09:45,0.048,
    Until: 09:50,1.000,
    Until: 11:50,0.000,
    Until: 11:52,1.000,
    Until: 12:37,0.048,
    Until: 12:42,1.000,
    Until: 16:59,0.000,
    Until: 17:01,1.000,
    Until: 17:46,0.048,
    Until: 17:51,1.000,
    Until: 17:57,0.000,
    Until: 17:59,1.000,
    Until: 18:44,0.048,
    Until: 18:49,1.000,
    Until: 21:01,0.000,
    Until: 21:03,1.000,
    Until: 21:48,0.048,
    Until: 21:53,1.000,
    Until: 21:54,0.000,
    Until: 21:56,1.000,
    Until: 22:41,0.048,
    Until: 22:46,1.000,
    Until: 22:47,0.000,
    Until: 22:49,1.000,
    Until: 23:34,0.048,
    Until: 23:39,1.000,
    Until: 24:00,0.000,
    Through: 10/24,
    For: AllDays,
    Until: 24:00,0.000,
    Through: 10/25,
    For: AllDays,
    Until: 24:00,0.000,
    Through: 10/26,
    For: AllDays,
    Until: 06:43,0.000,
    Until: 06:45,1.000,
    Until: 07:30,0.048,
    Until: 07:35,1.000,
    Until: 10:51,0.000,
    Until: 10:53,1.000,
    Until: 11:38,0.048,
    Until: 11:43,1.000,
    Until: 13:03,0.000,
    Until: 13:05,1.000,
    Until: 13:50,0.048,
    Until: 13:55,1.000,
    Until: 15:50,0.000,
    Until: 15:52,1.000,
    Until: 16:37,0.048,
    Until: 16:42,1.000,
    Until: 21:43,0.000,
    Until: 21:45,1.000,
    Until: 22:30,0.048,
    Until: 22:35,1.000,
    Until: 22:36,0.000,
    Until: 22:38,1.000,
    Until: 23:23,0.048,
    Until: 23:28,1.000,
    Until: 24:00,0.000,
    Through: 10/27,
    For: AllDays,
    Until: 12:27,0.000,
    Until: 12:29,1.000,
    Until: 13:14,0.048,
    Until: 13:19,1.000,
    Until: 13:44,0.000,
    Until: 13:46,1.000,
    Until: 14:31,0.048,
    Until: 14:36,1.000,
    Until: 16:14,0.000,
    Until: 16:16,1.000,
    Until: 17:01,0.048,
    Until: 17:06,1.000,
    Until: 20:53,0.000,
    Until: 20:55,1.000,
    Until: 21:40,0.048,
    Until: 21:45,1.000,
    Until: 21:49,0.000,
    Until: 21:51,1.000,
    Until: 22:36,0.048,
    Until: 22:41,1.000,
    Until: 22:51,0.000,
    Until: 22:53,1.000,
    Until: 23:38,0.048,
    Until: 23:43,1.000,
    Until: 24:00,0.000,
    Through: 10/28,
    For: AllDays,
    Until: 12:07,0.000,
    Until: 12:09,1.000,
    Until: 12:54,0.048,
    Until: 12:59,1.000,
    Until: 13:39,0.000,
    Until: 13:41,1.000,
    Until: 14:26,0.048,
    Until: 14:31,1.000,
    Until: 17:40,0.000,
    Until: 17:42,1.000,
    Until: 18:27,0.048,
    Until: 18:32,1.000,
    Until: 21:25,0.000,
    Until: 21:27,1.000,
    Until: 22:12,0.048,
    Until: 22:17,1.000,
    Until: 22:29,0.000,
    Until: 22:31,1.000,
    Until: 23:16,0.048,
    Until: 23:21,1.000,
    Until: 23:41,0.000,
    Until: 23:43,1.000,
    Until: 24:00,0.048,
    Through: 10/29,
    For: AllDays,
    Until: 00:28,0.048,
    Until: 00:33,1.000,
    Until: 11:37,0.000,
    Until: 11:39,1.000,
    Until: 12:24,0.048,
    Until: 12:29,1.000,
    Until: 16:38,0.000,
    Until: 16:40,1.000,
    Until: 17:25,0.048,
    Until: 17:30,1.000,
    Until: 19:39,0.000,
    Until: 19:41,1.000,
    Until: 20:26,0.048,
    Until: 20:31,1.000,
    Until: 20:54,0.000,
    Until: 20:56,1.000,
    Until: 21:41,0.048,
    Until: 21:46,1.000,
    Until: 21:52,0.000,
    Until: 21:54,1.000,
    Until: 22:39,0.048,
    Until: 22:44,1.000,
    Until: 24:00,0.000,
    Through: 10/30,
    For: AllDays,
    Until: 08:23,0.000,
    Until: 08:25,1.000,
    Until: 09:10,0.048,
    Until: 09:15,1.000,
    Until: 13:00,0.000,
    Until: 13:02,1.000,
    Until: 13:47,0.048,
    Until: 13:52,1.000,
    Until: 16:07,0.000,
    Until: 16:09,1.000,
    Until: 16:54,0.048,
    Until: 16:59,1.000,
    Until: 17:11,0.000,
    Until: 17:13,1.000,
    Until: 17:58,0.048,
    Until: 18:03,1.000,
    Until: 19:25,0.000,
    Until: 19:27,1.000,
    Until: 20:12,0.048,
    Until: 20:17,1.000,
    Until: 20:50,0.000,
    Until: 20:52,1.000,
    Until: 21:37,0.048,
    Until: 21:42,1.000,
    Until: 24:00,0.000,
    Through: 10/31,
    For: AllDays,
    Until: 24:00,0.000,
    Through: 11/1,
    For: AllDays,
    Until: 24:00,0.000,
    Through: 11/2,
    For: AllDays,
    Until: 11:38,0.000,
    Until: 11:40,1.000,
    Until: 12:25,0.048,
    Until: 12:30,1.000,
    Until: 12:33,0.000,
    Until: 12:35,1.000,
    Until: 13:20,0.048,
    Until: 13:25,1.000,
    Until: 21:52,0.000,
    Until: 21:54,1.000,
    Until: 22:39,0.048,
    Until: 22:44,1.000,
    Until: 24:00,0.000,
    Through: 11/3,
    For: AllDays,
    Until: 20:19,0.000,
    Until: 20:21,1.000,
    Until: 21:06,0.048,
    Until: 21:11,1.000,
    Until: 21:49,0.000,
    Until: 21:51,1.000,
    Until: 22:36,0.048,
    Until: 22:41,1.000,
    Until: 23:24,0.000,
    Until: 23:26,1.000,
    Until: 24:00,0.048,
    Through: 11/4,
    For: AllDays,
    Until: 00:11,0.048,
    Until: 00:16,1.000,
    Until: 08:02,0.000,
    Until: 08:04,1.000,
    Until: 08:49,0.048,
    Until: 08:54,1.000,
    Until: 11:03,0.000,
    Until: 11:05,1.000,
    Until: 11:50,0.048,
    Until: 11:55,1.000,
    Until: 18:32,0.000,
    Until: 18:34,1.000,
    Until: 19:19,0.048,
    Until: 19:24,1.000,
    Until: 19:27,0.000,
    Until: 19:29,1.000,
    Until: 20:14,0.048,
    Until: 20:19,1.000,
    Until: 21:05,0.000,
    Until: 21:07,1.000,
    Until: 21:52,0.048,
    Until: 21:57,1.000,
    Until: 22:00,0.000,
    Until: 22:02,1.000,
    Until: 22:47,0.048,
    Until: 22:52,1.000,
    Until: 24:00,0.000,
    Through: 11/5,
    For: AllDays,
    Until: 10:55,0.000,
    Until: 10:57,1.000,
    Until: 11:42,0.048,
    Until: 11:47,1.000,
    Until: 20:39,0.000,
    Until: 20:41,1.000,
    Until: 21:26,0.048,
    Until: 21:31,1.000,
    Until: 22:15,0.000,
    Until: 22:17,1.000,
    Until: 23:02,0.048,
    Until: 23:07,1.000,
    Until: 24:00,0.000,
    Through: 11/6,
    For: AllDays,
    Until: 09:41,0.000,
    Until: 09:43,1.000,
    Until: 10:28,0.048,
    Until: 10:33,1.000,
    Until: 16:41,0.000,
    Until: 16:43,1.000,
    Until: 17:28,0.048,
    Until: 17:33,1.000,
    Until: 19:25,0.000,
    Until: 19:27,1.000,
    Until: 20:12,0.048,
    Until: 20:17,1.000,
    Until: 21:54,0.000,
    Until: 21:56,1.000,
    Until: 22:41,0.048,
    Until: 22:46,1.000,
    Until: 24:00,0.000,
    Through: 11/7,
    For: AllDays,
    Until: 24:00,0.000,
    Through: 11/8,
    For: AllDays,
    Until: 24:00,0.000,
    Through: 11/9,
    For: AllDays,
    Until: 06:42,0.000,
    Until: 06:44,1.000,
    Until: 07:29,0.048,
    Until: 07:34,1.000,
    Until: 12:06,0.000,
    Until: 12:08,1.000,
    Until: 12:53,0.048,
    Until: 12:58,1.000,
    Until: 13:36,0.000,
    Until: 13:38,1.000,
    Until: 14:23,0.048,
    Until: 14:28,1.000,
    Until: 16:33,0.000,
    Until: 16:35,1.000,
    Until: 17:20,0.048,
    Until: 17:25,1.000,
    Until: 21:51,0.000,
    Until: 21:53,1.000,
    Until: 22:38,0.048,
    Until: 22:43,1.000,
    Until: 22:44,0.000,
    Until: 22:46,1.000,
    Until: 23:31,0.048,
    Until: 23:36,1.000,
    Until: 24:00,0.000,
    Through: 11/10,
    For: AllDays,
    Until: 05:46,0.000,
    Until: 05:48,1.000,
    Until: 06:33,0.048,
    Until: 06:38,1.000,
    Until: 10:04,0.000,
    Until: 10:06,1.000,
    Until: 10:51,0.048,
    Until: 10:56,1.000,
    Until: 20:35,0.000,
    Until: 20:37,1.000,
    Until: 21:22,0.048,
    Until: 21:27,1.000,
    Until: 22:35,0.000,
    Until: 22:37,1.000,
    Until: 23:22,0.048,
    Until: 23:27,1.000,
    Until: 24:00,0.000,
    Through: 11/11,
    For: AllDays,
    Until: 06:21,0.000,
    Until: 06:23,1.000,
    Until: 07:08,0.048,
    Until: 07:13,1.000,
    Until: 10:23,0.000,
    Until: 10:25,1.000,
    Until: 11:10,0.048,
    Until: 11:15,1.000,
    Until: 16:42,0.000,
    Until: 16:44,1.000,
    Until: 17:29,0.048,
    Until: 17:34,1.000,
    Until: 22:08,0.000,
    Until: 22:10,1.000,
    Until: 22:55,0.048,
    Until: 23:00,1.000,
    Until: 24:00,0.000,
    Through: 11/12,
    For: AllDays,
    Until: 16:00,0.000,
    Until: 16:02,1.000,
    Until: 16:47,0.048,
    Until: 16:52,1.000,
    Until: 17:50,0.000,
    Until: 17:52,1.000,
    Until: 18:37,0.048,
    Until: 18:42,1.000,
    Until: 21:49,0.000,
    Until: 21:51,1.000,
    Until: 22:36,0.048,
    Until: 22:41,1.000,
    Until: 22:52,0.000,
    Until: 22:54,1.000,
    Until: 23:39,0.048,
    Until: 23:44,1.000,
    Until: 24:00,0.000,
    Through: 11/13,
    For: AllDays,
    Until: 11:28,0.000,
    Until: 11:30,1.000,
    Until: 12:15,0.048,
    Until: 12:20,1.000,
    Until: 23:00,0.000,
    Until: 23:02,1.000,
    Until: 23:47,0.048,
    Until: 23:52,1.000,
    Until: 24:00,0.000,
    Through: 11/14,
    For: AllDays,
    Until: 24:00,0.000,
    Through: 11/15,
    For: AllDays,
    Until: 24:00,0.000,
    Through: 11/16,
    For: AllDays,
    Until: 09:18,0.000,
    Until: 09:20,1.000,
    Until: 10:05,0.048,
    Until: 10:10,1.000,
    Until: 12:12,0.000,
    Until: 12:14,1.000,
    Until: 12:59,0.048,
    Until: 13:04,1.000,
    Until: 20:32,0.000,
    Until: 20:34,1.000,
    Until: 21:19,0.048,
    Until: 21:24,1.000,
    Until: 24:00,0.000,
    Through: 11/17,
    For: AllDays,
    Until: 12:28,0.000,
    Until: 12:30,1.000,
    Until: 13:15,0.048,
    Until: 13:20,1.000,
    Until: 22:30,0.000,
    Until: 22:32,1.000,
    Until: 23:17,0.048,
    Until: 23:22,1.000,
    Until: 24:00,0.000,
    Through: 11/18,
    For: AllDays,
    Until: 05:04,0.000,
    Until: 05:06,1.000,
    Until: 05:51,0.048,
    Until: 05:56,1.000,
    Until: 13:07,0.000,
    Until: 13:09,1.000,
    Until: 13:54,0.048,
    Until: 13:59,1.000,
    Until: 17:39,0.000,
    Until: 17:41,1.000,
    Until: 18:26,0.048,
    Until: 18:31,1.000,
    Until: 20:15,0.000,
    Until: 20:17,1.000,
    Until: 21:02,0.048,
    Until: 21:07,1.000,
    Until: 21:20,0.000,
    Until: 21:22,1.000,
    Until: 22:07,0.048,
    Until: 22:12,1.000,
    Until: 23:11,0.000,
    Until: 23:13,1.000,
    Until: 23:58,0.048,
    Until: 24:00,1.000,
    Through: 11/19,
    For: AllDays,
    Until: 00:03,1.000,
    Until: 10:12,0.000,
    Until: 10:14,1.000,
    Until: 10:59,0.048,
    Until: 11:04,1.000,
    Until: 17:51,0.000,
    Until: 17:53,1.000,
    Until: 18:38,0.048,
    Until: 18:43,1.000,
    Until: 20:15,0.000,
    Until: 20:17,1.000,
    Until: 21:02,0.048,
    Until: 21:07,1.000,
    Until: 21:19,0.000,
    Until: 21:21,1.000,
    Until: 22:06,0.048,
    Until: 22:11,1.000,
    Until: 22:32,0.000,
    Until: 22:34,1.000,
    Until: 23:19,0.048,
    Until: 23:24,1.000,
    Until: 24:00,0.000,
    Through: 11/20,
    For: AllDays,
    Until: 12:00,0.000,
    Until: 12:02,1.000,
    Until: 12:47,0.048,
    Until: 12:52,1.000,
    Until: 15:37,0.000,
    Until: 15:39,1.000,
    Until: 16:24,0.048,
    Until: 16:29,1.000,
    Until: 18:51,0.000,
    Until: 18:53,1.000,
    Until: 19:38,0.048,
    Until: 19:43,1.000,
    Until: 20:45,0.000,
    Until: 20:47,1.000,
    Until: 21:32,0.048,
    Until: 21:37,1.000,
    Until: 22:35,0.000,
    Until: 22:37,1.000,
    Until: 23:22,0.048,
    Until: 23:27,1.000,
    Until: 24:00,0.000,
    Through: 11/21,
    For: AllDays,
    Until: 24:00,0.000,
    Through: 11/22,
    For: AllDays,
    Until: 24:00,0.000,
    Through: 11/23,
    For: AllDays,
    Until: 13:27,0.000,
    Until: 13:29,1.000,
    Until: 14:14,0.048,
    Until: 14:19,1.000,
    Until: 21:50,0.000,
    Until: 21:52,1.000,
    Until: 22:37,0.048,
    Until: 22:42,1.000,
    Until: 24:00,0.000,
    Through: 11/24,
    For: AllDays,
    Until: 11:37,0.000,
    Until: 11:39,1.000,
    Until: 12:24,0.048,
    Until: 12:29,1.000,
    Until: 19:38,0.000,
    Until: 19:40,1.000,
    Until: 20:25,0.048,
    Until: 20:30,1.000,
    Until: 20:44,0.000,
    Until: 20:46,1.000,
    Until: 21:31,0.048,
    Until: 21:36,1.000,
    Until: 21:39,0.000,
    Until: 21:41,1.000,
    Until: 22:26,0.048,
    Until: 22:31,1.000,
    Until: 24:00,0.000,
    Through: 11/25,
    For: AllDays,
    Until: 10:37,0.000,
    Until: 10:39,1.000,
    Until: 11:24,0.048,
    Until: 11:29,1.000,
    Until: 19:01,0.000,
    Until: 19:03,1.000,
    Until: 19:48,0.048,
    Until: 19:53,1.000,
    Until: 24:00,0.000,
    Through: 11/26,
    For: AllDays,
    Until: 12:46,0.000,
    Until: 12:48,1.000,
    Until: 13:33,0.048,
    Until: 13:38,1.000,
    Until: 22:30,0.000,
    Until: 22:32,1.000,
    Until: 23:17,0.048,
    Until: 23:22,1.000,
    Until: 24:00,0.000,
    Through: 11/27,
    For: AllDays,
    Until: 07:43,0.000,
    Until: 07:45,1.000,
    Until: 08:30,0.048,
    Until: 08:35,1.000,
    Until: 18:19,0.000,
    Until: 18:21,1.000,
    Until: 19:06,0.048,
    Until: 19:11,1.000,
    Until: 21:01,0.000,
    Until: 21:03,1.000,
    Until: 21:48,0.048,
    Until: 21:53,1.000,
    Until: 24:00,0.000,
    Through: 11/28,
    For: AllDays,
    Until: 24:00,0.000,
    Through: 11/29,
    For: AllDays,
    Until: 24:00,0.000,
    Through: 11/30,
    For: AllDays,
    Until: 11:30,0.000,
    Until: 11:32,1.000,
    Until: 12:17,0.048,
    Until: 12:22,1.000,
    Until: 14:07,0.000,
    Until: 14:09,1.000,
    Until: 14:54,0.048,
    Until: 14:59,1.000,
    Until: 23:17,0.000,
    Until: 23:19,1.000,
    Until: 24:00,0.048,
    Through: 12/1,
    For: AllDays,
    Until: 00:04,0.048,
    Until: 00:09,1.000,
    Until: 10:15,0.000,
    Until: 10:17,1.000,
    Until: 11:02,0.048,
    Until: 11:07,1.000,
    Until: 18:42,0.000,
    Until: 18:44,1.000,
    Until: 19:29,0.048,
    Until: 19:34,1.000,
    Until: 20:44,0.000,
    Until: 20:46,1.000,
    Until: 21:31,0.048,
    Until: 21:36,1.000,
    Until: 22:48,0.000,
    Until: 22:50,1.000,
    Until: 23:35,0.048,
    Until: 23:40,1.000,
    Until: 24:00,0.000,
    Through: 12/2,
    For: AllDays,
    Until: 08:23,0.000,
    Until: 08:25,1.000,
    Until: 09:10,0.048,
    Until: 09:15,1.000,
    Until: 14:42,0.000,
    Until: 14:44,1.000,
    Until: 15:29,0.048,
    Until: 15:34,1.000,
    Until: 16:59,0.000,
    Until: 17:01,1.000,
    Until: 17:46,0.048,
    Until: 17:51,1.000,
    Until: 21:24,0.000,
    Until: 21:26,1.000,
    Until: 22:11,0.048,
    Until: 22:16,1.000,
    Until: 23:13,0.000,
    Until: 23:15,1.000,
    Until: 24:00,0.048,
    Through: 12/3,
    For: AllDays,
    Until: 00:00,0.048,
    Until: 00:05,1.000,
    Until: 12:07,0.000,
    Until: 12:09,1.000,
    Until: 12:54,0.048,
    Until: 12:59,1.000,
    Until: 20:32,0.000,
    Until: 20:34,1.000,
    Until: 21:19,0.048,
    Until: 21:24,1.000,
    Until: 21:25,0.000,
    Until: 21:27,1.000,
    Until: 22:12,0.048,
    Until: 22:17,1.000,
    Until: 24:00,0.000,
    Through: 12/4,
    For: AllDays,
    Until: 16:38,0.000,
    Until: 16:40,1.000,
    Until: 17:25,0.048,
    Until: 17:30,1.000,
    Until: 18:37,0.000,
    Until: 18:39,1.000,
    Until: 19:24,0.048,
    Until: 19:29,1.000,
    Until: 21:07,0.000,
    Until: 21:09,1.000,
    Until: 21:54,0.048,
    Until: 21:59,1.000,
    Until: 22:50,0.000,
    Until: 22:52,1.000,
    Until: 23:37,0.048,
    Until: 23:42,1.000,
    Until: 24:00,0.000,
    Through: 12/5,
    For: AllDays,
    Until: 24:00,0.000,
    Through: 12/6,
    For: AllDays,
    Until: 24:00,0.000,
    Through: 12/7,
    For: AllDays,
    Until: 10:31,0.000,
    Until: 10:33,1.000,
    Until: 11:18,0.048,
    Until: 11:23,1.000,
    Until: 12:22,0.000,
    Until: 12:24,1.000,
    Until: 13:09,0.048,
    Until: 13:14,1.000,
    Until: 16:07,0.000,
    Until: 16:09,1.000,
    Until: 16:54,0.048,
    Until: 16:59,1.000,
    Until: 19:55,0.000,
    Until: 19:57,1.000,
    Until: 20:42,0.048,
    Until: 20:47,1.000,
    Until: 21:07,0.000,
    Until: 21:09,1.000,
    Until: 21:54,0.048,
    Until: 21:59,1.000,
    Until: 24:00,0.000,
    Through: 12/8,
    For: AllDays,
    Until: 07:22,0.000,
    Until: 07:24,1.000,
    Until: 08:09,0.048,
    Until: 08:14,1.000,
    Until: 17:25,0.000,
    Until: 17:27,1.000,
    Until: 18:12,0.048,
    Until: 18:17,1.000,
    Until: 21:12,0.000,
    Until: 21:14,1.000,
    Until: 21:59,0.048,
    Until: 22:04,1.000,
    Until: 22:32,0.000,
    Until: 22:34,1.000,
    Until: 23:19,0.048,
    Until: 23:24,1.000,
    Until: 23:27,0.000,
    Until: 23:29,1.000,
    Until: 24:00,0.048,
    Through: 12/9,
    For: AllDays,
    Until: 00:14,0.048,
    Until: 00:19,1.000,
    Until: 13:06,0.000,
    Until: 13:08,1.000,
    Until: 13:53,0.048,
    Until: 13:58,1.000,
    Until: 17:15,0.000,
    Until: 17:17,1.000,
    Until: 18:02,0.048,
    Until: 18:07,1.000,
    Until: 18:20,0.000,
    Until: 18:22,1.000,
    Until: 19:07,0.048,
    Until: 19:12,1.000,
    Until: 20:59,0.000,
    Until: 21:01,1.000,
    Until: 21:46,0.048,
    Until: 21:51,1.000,
    Until: 23:17,0.000,
    Until: 23:19,1.000,
    Until: 24:00,0.048,
    Through: 12/10,
    For: AllDays,
    Until: 00:04,0.048,
    Until: 00:09,1.000,
    Until: 11:29,0.000,
    Until: 11:31,1.000,
    Until: 12:16,0.048,
    Until: 12:21,1.000,
    Until: 13:21,0.000,
    Until: 13:23,1.000,
    Until: 14:08,0.048,
    Until: 14:13,1.000,
    Until: 16:14,0.000,
    Until: 16:16,1.000,
    Until: 17:01,0.048,
    Until: 17:06,1.000,
    Until: 17:14,0.000,
    Until: 17:16,1.000,
    Until: 18:01,0.048,
    Until: 18:06,1.000,
    Until: 20:43,0.000,
    Until: 20:45,1.000,
    Until: 21:30,0.048,
    Until: 21:35,1.000,
    Until: 21:51,0.000,
    Until: 21:53,1.000,
    Until: 22:38,0.048,
    Until: 22:43,1.000,
    Until: 22:44,0.000,
    Until: 22:46,1.000,
    Until: 23:31,0.048,
    Until: 23:36,1.000,
    Until: 24:00,0.000,
    Through: 12/11,
    For: AllDays,
    Until: 08:41,0.000,
    Until: 08:43,1.000,
    Until: 09:28,0.048,
    Until: 09:33,1.000,
    Until: 11:17,0.000,
    Until: 11:19,1.000,
    Until: 12:04,0.048,
    Until: 12:09,1.000,
    Until: 21:01,0.000,
    Until: 21:03,1.000,
    Until: 21:48,0.048,
    Until: 21:53,1.000,
    Until: 22:11,0.000,
    Until: 22:13,1.000,
    Until: 22:58,0.048,
    Until: 23:03,1.000,
    Until: 23:12,0.000,
    Until: 23:14,1.000,
    Until: 23:59,0.048,
    Until: 24:00,1.000,
    Through: 12/12,
    For: AllDays,
    Until: 00:04,1.000,
    Until: 24:00,0.000,
    Through: 12/13,
    For: AllDays,
    Until: 24:00,0.000,
    Through: 12/14,
    For: AllDays,
    Until: 06:35,0.000,
    Until: 06:37,1.000,
    Until: 07:22,0.048,
    Until: 07:27,1.000,
    Until: 12:23,0.000,
    Until: 12:25,1.000,
    Until: 13:10,0.048,
    Until: 13:15,1.000,
    Until: 15:41,0.000,
    Until: 15:43,1.000,
    Until: 16:28,0.048,
    Until: 16:33,1.000,
    Until: 17:48,0.000,
    Until: 17:50,1.000,
    Until: 18:35,0.048,
    Until: 18:40,1.000,
    Until: 19:29,0.000,
    Until: 19:31,1.000,
    Until: 20:16,0.048,
    Until: 20:21,1.000,
    Until: 20:52,0.000,
    Until: 20:54,1.000,
    Until: 21:39,0.048,
    Until: 21:44,1.000,
    Until: 22:30,0.000,
    Until: 22:32,1.000,
    Until: 23:17,0.048,
    Until: 23:22,1.000,
    Until: 24:00,0.000,
    Through: 12/15,
    For: AllDays,
    Until: 11:56,0.000,
    Until: 11:58,1.000,
    Until: 12:43,0.048,
    Until: 12:48,1.000,
    Until: 13:16,0.000,
    Until: 13:18,1.000,
    Until: 14:03,0.048,
    Until: 14:08,1.000,
    Until: 17:40,0.000,
    Until: 17:42,1.000,
    Until: 18:27,0.048,
    Until: 18:32,1.000,
    Until: 20:33,0.000,
    Until: 20:35,1.000,
    Until: 21:20,0.048,
    Until: 21:25,1.000,
    Until: 21:52,0.000,
    Until: 21:54,1.000,
    Until: 22:39,0.048,
    Until: 22:44,1.000,
    Until: 23:12,0.000,
    Until: 23:14,1.000,
    Until: 23:59,0.048,
    Until: 24:00,1.000,
    Through: 12/16,
    For: AllDays,
    Until: 00:04,1.000,
    Until: 18:04,0.000,
    Until: 18:06,1.000,
    Until: 18:51,0.048,
    Until: 18:56,1.000,
    Until: 20:59,0.000,
    Until: 21:01,1.000,
    Until: 21:46,0.048,
    Until: 21:51,1.000,
    Until: 22:13,0.000,
    Until: 22:15,1.000,
    Until: 23:00,0.048,
    Until: 23:05,1.000,
    Until: 23:12,0.000,
    Until: 23:14,1.000,
    Until: 23:59,0.048,
    Until: 24:00,1.000,
    Through: 12/17,
    For: AllDays,
    Until: 00:04,1.000,
    Until: 09:54,0.000,
    Until: 09:56,1.000,
    Until: 10:41,0.048,
    Until: 10:46,1.000,
    Until: 12:43,0.000,
    Until: 12:45,1.000,
    Until: 13:30,0.048,
    Until: 13:35,1.000,
    Until: 16:38,0.000,
    Until: 16:40,1.000,
    Until: 17:25,0.048,
    Until: 17:30,1.000,
    Until: 20:45,0.000,
    Until: 20:47,1.000,
    Until: 21:32,0.048,
    Until: 21:37,1.000,
    Until: 22:02,0.000,
    Until: 22:04,1.000,
    Until: 22:49,0.048,
    Until: 22:54,1.000,
    Until: 24:00,0.000,
    Through: 12/18,
    For: AllDays,
    Until: 11:55,0.000,
    Until: 11:57,1.000,
    Until: 12:42,0.048,
    Until: 12:47,1.000,
    Until: 13:56,0.000,
    Until: 13:58,1.000,
    Until: 14:43,0.048,
    Until: 14:48,1.000,
    Until: 15:43,0.000,
    Until: 15:45,1.000,
    Until: 16:30,0.048,
    Until: 16:35,1.000,
    Until: 21:57,0.000,
    Until: 21:59,1.000,
    Until: 22:44,0.048,
    Until: 22:49,1.000,
    Until: 22:50,0.000,
    Until: 22:52,1.000,
    Until: 23:37,0.048,
    Until: 23:42,1.000,
    Until: 24:00,0.000,
    Through: 12/19,
    For: AllDays,
    Until: 24:00,0.000,
    Through: 12/20,
    For: AllDays,
    Until: 24:00,0.000,
    Through: 12/21,
    For: AllDays,
    Until: 08:08,0.000,
    Until: 08:10,1.000,
    Until: 08:55,0.048,
    Until: 09:00,1.000,
    Until: 12:56,0.000,
    Until: 12:58,1.000,
    Until: 13:43,0.048,
    Until: 13:48,1.000,
    Until: 20:32,0.000,
    Until: 20:34,1.000,
    Until: 21:19,0.048,
    Until: 21:24,1.000,
    Until: 21:48,0.000,
    Until: 21:50,1.000,
    Until: 22:35,0.048,
    Until: 22:40,1.000,
    Until: 24:00,0.000,
    Through: 12/22,
    For: AllDays,
    Until: 06:48,0.000,
    Until: 06:50,1.000,
    Until: 07:35,0.048,
    Until: 07:40,1.000,
    Until: 12:04,0.000,
    Until: 12:06,1.000,
    Until: 12:51,0.048,
    Until: 12:56,1.000,
    Until: 16:43,0.000,
    Until: 16:45,1.000,
    Until: 17:30,0.048,
    Until: 17:35,1.000,
    Until: 18:10,0.000,
    Until: 18:12,1.000,
    Until: 18:57,0.048,
    Until: 19:02,1.000,
    Until: 19:43,0.000,
    Until: 19:45,1.000,
    Until: 20:30,0.048,
    Until: 20:35,1.000,
    Until: 20:53,0.000,
    Until: 20:55,1.000,
    Until: 21:40,0.048,
    Until: 21:45,1.000,
    Until: 21:59,0.000,
    Until: 22:01,1.000,
    Until: 22:46,0.048,
    Until: 22:51,1.000,
    Until: 24:00,0.000,
    Through: 12/23,
    For: AllDays,
    Until: 07:07,0.000,
    Until: 07:09,1.000,
    Until: 07:54,0.048,
    Until: 07:59,1.000,
    Until: 08:04,0.000,
    Until: 08:06,1.000,
    Until: 08:51,0.048,
    Until: 08:56,1.000,
    Until: 09:49,0.000,
    Until: 09:51,1.000,
    Until: 10:36,0.048,
    Until: 10:41,1.000,
    Until: 13:32,0.000,
    Until: 13:34,1.000,
    Until: 14:19,0.048,
    Until: 14:24,1.000,
    Until: 15:08,0.000,
    Until: 15:10,1.000,
    Until: 15:55,0.048,
    Until: 16:00,1.000,
    Until: 16:05,0.000,
    Until: 16:07,1.000,
    Until: 16:52,0.048,
    Until: 16:57,1.000,
    Until: 17:12,0.000,
    Until: 17:14,1.000,
    Until: 17:59,0.048,
    Until: 18:04,1.000,
    Until: 20:40,0.000,
    Until: 20:42,1.000,
    Until: 21:27,0.048,
    Until: 21:32,1.000,
    Until: 21:45,0.000,
    Until: 21:47,1.000,
    Until: 22:32,0.048,
    Until: 22:37,1.000,
    Until: 24:00,0.000,
    Through: 12/24,
    For: AllDays,
    Until: 07:41,0.000,
    Until: 07:43,1.000,
    Until: 08:28,0.048,
    Until: 08:33,1.000,
    Until: 13:05,0.000,
    Until: 13:07,1.000,
    Until: 13:52,0.048,
    Until: 13:57,1.000,
    Until: 16:01,0.000,
    Until: 16:03,1.000,
    Until: 16:48,0.048,
    Until: 16:53,1.000,
    Until: 18:06,0.000,
    Until: 18:08,1.000,
    Until: 18:53,0.048,
    Until: 18:58,1.000,
    Until: 20:16,0.000,
    Until: 20:18,1.000,
    Until: 21:03,0.048,
    Until: 21:08,1.000,
    Until: 21:47,0.000,
    Until: 21:49,1.000,
    Until: 22:34,0.048,
    Until: 22:39,1.000,
    Until: 23:27,0.000,
    Until: 23:29,1.000,
    Until: 24:00,0.048,
    Through: 12/25,
    For: AllDays,
    Until: 00:14,0.048,
    Until: 00:19,1.000,
    Until: 11:41,0.000,
    Until: 11:43,1.000,
    Until: 12:28,0.048,
    Until: 12:33,1.000,
    Until: 12:55,0.000,
    Until: 12:57,1.000,
    Until: 13:42,0.048,
    Until: 13:47,1.000,
    Until: 15:40,0.000,
    Until: 15:42,1.000,
    Until: 16:27,0.048,
    Until: 16:32,1.000,
    Until: 21:34,0.000,
    Until: 21:36,1.000,
    Until: 22:21,0.048,
    Until: 22:26,1.000,
    Until: 22:27,0.000,
    Until: 22:29,1.000,
    Until: 23:14,0.048,
    Until: 23:19,1.000,
    Until: 24:00,0.000,
    Through: 12/26,
    For: AllDays,
    Until: 24:00,0.000,
    Through: 12/27,
    For: AllDays,
    Until: 24:00,0.000,
    Through: 12/28,
    For: AllDays,
    Until: 06:57,0.000,
    Until: 06:59,1.000,
    Until: 07:44,0.048,
    Until: 07:49,1.000,
    Until: 10:10,0.000,
    Until: 10:12,1.000,
    Until: 10:57,0.048,
    Until: 11:02,1.000,
    Until: 12:50,0.000,
    Until: 12:52,1.000,
    Until: 13:37,0.048,
    Until: 13:42,1.000,
    Until: 18:42,0.000,
    Until: 18:44,1.000,
    Until: 19:29,0.048,
    Until: 19:34,1.000,
    Until: 21:15,0.000,
    Until: 21:17,1.000,
    Until: 22:02,0.048,
    Until: 22:07,1.000,
    Until: 22:12,0.000,
    Until: 22:14,1.000,
    Until: 22:59,0.048,
    Until: 23:04,1.000,
    Until: 24:00,0.000,
    Through: 12/29,
    For: AllDays,
    Until: 07:00,0.000,
    Until: 07:02,1.000,
    Until: 07:47,0.048,
    Until: 07:52,1.000,
    Until: 12:48,0.000,
    Until: 12:50,1.000,
    Until: 13:35,0.048,
    Until: 13:40,1.000,
    Until: 15:38,0.000,
    Until: 15:40,1.000,
    Until: 16:25,0.048,
    Until: 16:30,1.000,
    Until: 17:56,0.000,
    Until: 17:58,1.000,
    Until: 18:43,0.048,
    Until: 18:48,1.000,
    Until: 19:22,0.000,
    Until: 19:24,1.000,
    Until: 20:09,0.048,
    Until: 20:14,1.000,
    Until: 22:42,0.000,
    Until: 22:44,1.000,
    Until: 23:29,0.048,
    Until: 23:34,1.000,
    Until: 23:43,0.000,
    Until: 23:45,1.000,
    Until: 24:00,0.048,
    Through: 12/30,
    For: AllDays,
    Until: 00:30,0.048,
    Until: 00:35,1.000,
    Until: 12:56,0.000,
    Until: 12:58,1.000,
    Until: 13:43,0.048,
    Until: 13:48,1.000,
    Until: 16:37,0.000,
    Until: 16:39,1.000,
    Until: 17:24,0.048,
    Until: 17:29,1.000,
    Until: 22:02,0.000,
    Until: 22:04,1.000,
    Until: 22:49,0.048,
    Until: 22:54,1.000,
    Until: 22:55,0.000,
    Until: 22:57,1.000,
    Until: 23:42,0.048,
    Until: 23:47,1.000,
    Until: 24:00,0.000,
    Through: 12/31,
    For: AllDays,
    Until: 13:50,0.000,
    Until: 13:52,1.000,
    Until: 14:37,0.048,
    Until: 14:42,1.000,
    Until: 22:01,0.000,
    Until: 22:03,1.000,
    Until: 22:48,0.048,
    Until: 22:53,1.000,
    Until: 22:54,0.000,
    Until: 22:56,1.000,
    Until: 23:41,0.048,
    Until: 23:46,1.000,
    Until: 24:00,0.000,
    Through: 1/2,
    For: AllDays,
    Until: 24:00,0.000;


!- ============================================================================
!-   MATERIALS AND CONSTRUCTIONS
!- ============================================================================

Material,
    AW_IW_Obj30_Porenbeton,  !- Name
    MediumRough,             !- Roughness
    0.2032,                  !- Thickness {m}
    0.5,                     !- Conductivity {W/m-K}
    464,                     !- Density {kg/m3}
    880;                     !- Specific Heat {J/kg-K}

Material,
    D_Obj14_Gipskarton,      !- Name
    MediumSmooth,            !- Roughness
    0.0159,                  !- Thickness {m}
    0.16,                    !- Conductivity {W/m-K}
    800,                     !- Density {kg/m3}
    1090;                    !- Specific Heat {J/kg-K}

Material,
    B_Obj43_Beton,           !- Name
    MediumRough,             !- Roughness
    0.2032,                  !- Thickness {m}
    1.95,                    !- Conductivity {W/m-K}
    2240,                    !- Density {kg/m3}
    900;                     !- Specific Heat {J/kg-K}

Material,
    AW_Obj91_Waermedaemmung, !- Name
    Rough,                   !- Roughness
    0.025,                   !- Thickness {m}
    0.0245,                  !- Conductivity {W/m-K}
    24,                      !- Density {kg/m3}
    1590;                    !- Specific Heat {J/kg-K}

Material,
    D_Obj80_Daemmung,        !- Name
    MediumRough,             !- Roughness
    0.05,                    !- Thickness {m}
    0.036,                   !- Conductivity {W/m-K}
    140,                     !- Density {kg/m3}
    960;                     !- Specific Heat {J/kg-K}

Material,
    D_Obj84_XPS,             !- Name
    MediumSmooth,            !- Roughness
    0.025,                   !- Thickness {m}
    0.029,                   !- Conductivity {W/m-K}
    29,                      !- Density {kg/m3}
    1210;                    !- Specific Heat {J/kg-K}

Material,
    D_Obj8_Built-up roofing, !- Name
    Rough,                   !- Roughness
    0.0095,                  !- Thickness {m}
    0.16,                    !- Conductivity {W/m-K}
    1120,                    !- Density {kg/m3}
    1460;                    !- Specific Heat {J/kg-K}

Material,
    Obj03_Metal surface,     !- Name
    Smooth,                  !- Roughness
    0.005,                   !- Thickness {m}
    15,                      !- Conductivity {W/m-K}
    7824,                    !- Density {kg/m3}
    500;                     !- Specific Heat {J/kg-K}

Material,
    Obj20_G06 50mm wood,     !- Name
    MediumSmooth,            !- Roughness
    0.0508,                  !- Thickness {m}
    0.15,                    !- Conductivity {W/m-K}
    608,                     !- Density {kg/m3}
    1630;                    !- Specific Heat {J/kg-K}

WindowMaterial:SimpleGlazingSystem,
    Glazing_Tor,             !- Name
    1.8,                     !- U-Factor {W/m2-K}
    0.0001;                  !- Solar Heat Gain Coefficient

Construction,
    Aussenwand,              !- Name
    AW_Obj91_Waermedaemmung, !- Outside Layer
    AW_IW_Obj30_Porenbeton;  !- Layer 2

Construction,
    Innenwand,               !- Name
    AW_IW_Obj30_Porenbeton;  !- Outside Layer

Construction,
    Dach,                    !- Name
    D_Obj8_Built-up roofing, !- Outside Layer
    D_Obj80_Daemmung,        !- Layer 2
    D_Obj14_Gipskarton;      !- Layer 3

Construction,
    Boden,                   !- Name
    D_Obj84_XPS,             !- Outside Layer
    B_Obj43_Beton;           !- Layer 2

Construction,
    Tor,                     !- Name
    Glazing_Tor;             !- Outside Layer

Construction,
    Metall_IM,               !- Name
    Obj03_Metal surface;     !- Outside Layer

Construction,
    Holz_IM,                 !- Name
    Obj20_G06 50mm wood;     !- Outside Layer


!- ============================================================================
!-   GLOBALGEOMETRYRULES
!- ============================================================================

GlobalGeometryRules,
    UpperLeftCorner,         !- Starting Vertex Position
    Counterclockwise,        !- Vertex Entry Direction
    Relative,                !- Coordinate System
    Relative,                !- Daylighting Reference Point Coordinate System
    Relative;                !- Rectangular Surface Coordinate System


!- ============================================================================
!-   ZONE
!- ============================================================================

Zone,
    Zone_Halle,              !- Name
    0,                       !- Direction of Relative North {deg}
    0,                       !- X Origin {m}
    0,                       !- Y Origin {m}
    0,                       !- Z Origin {m}
    ,                        !- Type
    1,                       !- Multiplier
    12,                      !- Ceiling Height {m}
    10800,                   !- Volume {m3}
    900,                     !- Floor Area {m2}
    ,                        !- Zone Inside Convection Algorithm
    ,                        !- Zone Outside Convection Algorithm
    Yes;                     !- Part of Total Floor Area


!- ============================================================================
!-   BUILDINGSURFACE:DETAILED
!- ============================================================================

BuildingSurface:Detailed,
    Boden,                   !- Name
    Floor,                   !- Surface Type
    Boden,                   !- Construction Name
    Zone_Halle,              !- Zone Name
    ,                        !- Space Name
    Ground,                  !- Outside Boundary Condition
    ,                        !- Outside Boundary Condition Object
    NoSun,                   !- Sun Exposure
    NoWind,                  !- Wind Exposure
    1,                       !- View Factor to Ground
    4,                       !- Number of Vertices
    0,                       !- Vertex 1 X-coordinate {m}
    0,                       !- Vertex 1 Y-coordinate {m}
    0,                       !- Vertex 1 Z-coordinate {m}
    0,                       !- Vertex 2 X-coordinate {m}
    60,                      !- Vertex 2 Y-coordinate {m}
    0,                       !- Vertex 2 Z-coordinate {m}
    15,                      !- Vertex 3 X-coordinate {m}
    60,                      !- Vertex 3 Y-coordinate {m}
    0,                       !- Vertex 3 Z-coordinate {m}
    15,                      !- Vertex 4 X-coordinate {m}
    0,                       !- Vertex 4 Y-coordinate {m}
    0;                       !- Vertex 4 Z-coordinate {m}

BuildingSurface:Detailed,
    Dach,                    !- Name
    Roof,                    !- Surface Type
    Dach,                    !- Construction Name
    Zone_Halle,              !- Zone Name
    ,                        !- Space Name
    Outdoors,                !- Outside Boundary Condition
    ,                        !- Outside Boundary Condition Object
    SunExposed,              !- Sun Exposure
    WindExposed,             !- Wind Exposure
    0,                       !- View Factor to Ground
    4,                       !- Number of Vertices
    15,                      !- Vertex 1 X-coordinate {m}
    0,                       !- Vertex 1 Y-coordinate {m}
    12,                      !- Vertex 1 Z-coordinate {m}
    15,                      !- Vertex 2 X-coordinate {m}
    60,                      !- Vertex 2 Y-coordinate {m}
    12,                      !- Vertex 2 Z-coordinate {m}
    0,                       !- Vertex 3 X-coordinate {m}
    60,                      !- Vertex 3 Y-coordinate {m}
    12,                      !- Vertex 3 Z-coordinate {m}
    0,                       !- Vertex 4 X-coordinate {m}
    0,                       !- Vertex 4 Y-coordinate {m}
    12;                      !- Vertex 4 Z-coordinate {m}

BuildingSurface:Detailed,
    IW_West,                 !- Name
    Wall,                    !- Surface Type
    Innenwand,               !- Construction Name
    Zone_Halle,              !- Zone Name
    ,                        !- Space Name
    Adiabatic,               !- Outside Boundary Condition
    ,                        !- Outside Boundary Condition Object
    NoSun,                   !- Sun Exposure
    NoWind,                  !- Wind Exposure
    0,                       !- View Factor to Ground
    4,                       !- Number of Vertices
    0,                       !- Vertex 1 X-coordinate {m}
    0,                       !- Vertex 1 Y-coordinate {m}
    12,                      !- Vertex 1 Z-coordinate {m}
    0,                       !- Vertex 2 X-coordinate {m}
    60,                      !- Vertex 2 Y-coordinate {m}
    12,                      !- Vertex 2 Z-coordinate {m}
    0,                       !- Vertex 3 X-coordinate {m}
    60,                      !- Vertex 3 Y-coordinate {m}
    0,                       !- Vertex 3 Z-coordinate {m}
    0,                       !- Vertex 4 X-coordinate {m}
    0,                       !- Vertex 4 Y-coordinate {m}
    0;                       !- Vertex 4 Z-coordinate {m}

BuildingSurface:Detailed,
    IW_Ost,                  !- Name
    Wall,                    !- Surface Type
    Innenwand,               !- Construction Name
    Zone_Halle,              !- Zone Name
    ,                        !- Space Name
    Adiabatic,               !- Outside Boundary Condition
    ,                        !- Outside Boundary Condition Object
    NoSun,                   !- Sun Exposure
    NoWind,                  !- Wind Exposure
    0,                       !- View Factor to Ground
    4,                       !- Number of Vertices
    15,                      !- Vertex 1 X-coordinate {m}
    60,                      !- Vertex 1 Y-coordinate {m}
    12,                      !- Vertex 1 Z-coordinate {m}
    15,                      !- Vertex 2 X-coordinate {m}
    0,                       !- Vertex 2 Y-coordinate {m}
    12,                      !- Vertex 2 Z-coordinate {m}
    15,                      !- Vertex 3 X-coordinate {m}
    0,                       !- Vertex 3 Y-coordinate {m}
    0,                       !- Vertex 3 Z-coordinate {m}
    15,                      !- Vertex 4 X-coordinate {m}
    60,                      !- Vertex 4 Y-coordinate {m}
    0;                       !- Vertex 4 Z-coordinate {m}

BuildingSurface:Detailed,
    AW_Sued,                 !- Name
    Wall,                    !- Surface Type
    Aussenwand,              !- Construction Name
    Zone_Halle,              !- Zone Name
    ,                        !- Space Name
    Outdoors,                !- Outside Boundary Condition
    ,                        !- Outside Boundary Condition Object
    SunExposed,              !- Sun Exposure
    WindExposed,             !- Wind Exposure
    0.5,                     !- View Factor to Ground
    4,                       !- Number of Vertices
    15,                      !- Vertex 1 X-coordinate {m}
    0,                       !- Vertex 1 Y-coordinate {m}
    12,                      !- Vertex 1 Z-coordinate {m}
    0,                       !- Vertex 2 X-coordinate {m}
    0,                       !- Vertex 2 Y-coordinate {m}
    12,                      !- Vertex 2 Z-coordinate {m}
    0,                       !- Vertex 3 X-coordinate {m}
    0,                       !- Vertex 3 Y-coordinate {m}
    0,                       !- Vertex 3 Z-coordinate {m}
    15,                      !- Vertex 4 X-coordinate {m}
    0,                       !- Vertex 4 Y-coordinate {m}
    0;                       !- Vertex 4 Z-coordinate {m}

BuildingSurface:Detailed,
    AW_Nord,                 !- Name
    Wall,                    !- Surface Type
    Aussenwand,              !- Construction Name
    Zone_Halle,              !- Zone Name
    ,                        !- Space Name
    Outdoors,                !- Outside Boundary Condition
    ,                        !- Outside Boundary Condition Object
    SunExposed,              !- Sun Exposure
    WindExposed,             !- Wind Exposure
    0.5,                     !- View Factor to Ground
    4,                       !- Number of Vertices
    0,                       !- Vertex 1 X-coordinate {m}
    60,                      !- Vertex 1 Y-coordinate {m}
    12,                      !- Vertex 1 Z-coordinate {m}
    15,                      !- Vertex 2 X-coordinate {m}
    60,                      !- Vertex 2 Y-coordinate {m}
    12,                      !- Vertex 2 Z-coordinate {m}
    15,                      !- Vertex 3 X-coordinate {m}
    60,                      !- Vertex 3 Y-coordinate {m}
    0,                       !- Vertex 3 Z-coordinate {m}
    0,                       !- Vertex 4 X-coordinate {m}
    60,                      !- Vertex 4 Y-coordinate {m}
    0;                       !- Vertex 4 Z-coordinate {m}


!- ============================================================================
!-   FENESTRATIONSURFACE:DETAILED  (TORE)
!- ============================================================================

!- Alle sechs Tore sind offen im Sinne des Modells; wie weit, bestimmt
!- der jeweilige Schedule. Die Warnung CHKSBS 'Base surface does not
!- surround subsurface' entsteht dadurch, dass die Tore mit z = 0 exakt
!- auf der Unterkante der Basisflaeche liegen. Nach dem Lauf ist im
!- Tabellenbericht 'Envelope Summary' zu pruefen, ob die Nettoflaeche von
!- AW_Sued und AW_Nord jeweils 153,00 m2 betraegt (180,00 - 3 x 9,00).
!- Trifft das zu, ist die Warnung folgenlos.
!- Tor 1, AW_Sued, x = 1 bis 4 m, z = 0 bis 3 m, A = 9 m2, Schedule AN_1_Tor_Schedule
FenestrationSurface:Detailed,
    gate 1,                  !- Name
    Window,                  !- Surface Type
    Tor,                     !- Construction Name
    AW_Sued,                 !- Building Surface Name
    ,                        !- Outside Boundary Condition Object
    ,                        !- View Factor to Ground
    ,                        !- Frame and Divider Name
    ,                        !- Multiplier
    4,                       !- Number of Vertices
    4,                       !- Vertex 1 X-coordinate {m}
    0,                       !- Vertex 1 Y-coordinate {m}
    3,                       !- Vertex 1 Z-coordinate {m}
    1,                       !- Vertex 2 X-coordinate {m}
    0,                       !- Vertex 2 Y-coordinate {m}
    3,                       !- Vertex 2 Z-coordinate {m}
    1,                       !- Vertex 3 X-coordinate {m}
    0,                       !- Vertex 3 Y-coordinate {m}
    0,                       !- Vertex 3 Z-coordinate {m}
    4,                       !- Vertex 4 X-coordinate {m}
    0,                       !- Vertex 4 Y-coordinate {m}
    0;                       !- Vertex 4 Z-coordinate {m}

!- Tor 2, AW_Sued, x = 6 bis 9 m, z = 0 bis 3 m, A = 9 m2, Schedule AN_2_Tor_Schedule
FenestrationSurface:Detailed,
    gate 2,                  !- Name
    Window,                  !- Surface Type
    Tor,                     !- Construction Name
    AW_Sued,                 !- Building Surface Name
    ,                        !- Outside Boundary Condition Object
    ,                        !- View Factor to Ground
    ,                        !- Frame and Divider Name
    ,                        !- Multiplier
    4,                       !- Number of Vertices
    9,                       !- Vertex 1 X-coordinate {m}
    0,                       !- Vertex 1 Y-coordinate {m}
    3,                       !- Vertex 1 Z-coordinate {m}
    6,                       !- Vertex 2 X-coordinate {m}
    0,                       !- Vertex 2 Y-coordinate {m}
    3,                       !- Vertex 2 Z-coordinate {m}
    6,                       !- Vertex 3 X-coordinate {m}
    0,                       !- Vertex 3 Y-coordinate {m}
    0,                       !- Vertex 3 Z-coordinate {m}
    9,                       !- Vertex 4 X-coordinate {m}
    0,                       !- Vertex 4 Y-coordinate {m}
    0;                       !- Vertex 4 Z-coordinate {m}

!- Tor 3, AW_Sued, x = 11 bis 14 m, z = 0 bis 3 m, A = 9 m2, Schedule AN_3_Tor_Schedule
FenestrationSurface:Detailed,
    gate 3,                  !- Name
    Window,                  !- Surface Type
    Tor,                     !- Construction Name
    AW_Sued,                 !- Building Surface Name
    ,                        !- Outside Boundary Condition Object
    ,                        !- View Factor to Ground
    ,                        !- Frame and Divider Name
    ,                        !- Multiplier
    4,                       !- Number of Vertices
    14,                      !- Vertex 1 X-coordinate {m}
    0,                       !- Vertex 1 Y-coordinate {m}
    3,                       !- Vertex 1 Z-coordinate {m}
    11,                      !- Vertex 2 X-coordinate {m}
    0,                       !- Vertex 2 Y-coordinate {m}
    3,                       !- Vertex 2 Z-coordinate {m}
    11,                      !- Vertex 3 X-coordinate {m}
    0,                       !- Vertex 3 Y-coordinate {m}
    0,                       !- Vertex 3 Z-coordinate {m}
    14,                      !- Vertex 4 X-coordinate {m}
    0,                       !- Vertex 4 Y-coordinate {m}
    0;                       !- Vertex 4 Z-coordinate {m}

!- Tor 4, AW_Nord, x = 1 bis 4 m, z = 0 bis 3 m, A = 9 m2, Schedule AB_1_Tor_Schedule
FenestrationSurface:Detailed,
    gate 4,                  !- Name
    Window,                  !- Surface Type
    Tor,                     !- Construction Name
    AW_Nord,                 !- Building Surface Name
    ,                        !- Outside Boundary Condition Object
    ,                        !- View Factor to Ground
    ,                        !- Frame and Divider Name
    ,                        !- Multiplier
    4,                       !- Number of Vertices
    1,                       !- Vertex 1 X-coordinate {m}
    60,                      !- Vertex 1 Y-coordinate {m}
    3,                       !- Vertex 1 Z-coordinate {m}
    4,                       !- Vertex 2 X-coordinate {m}
    60,                      !- Vertex 2 Y-coordinate {m}
    3,                       !- Vertex 2 Z-coordinate {m}
    4,                       !- Vertex 3 X-coordinate {m}
    60,                      !- Vertex 3 Y-coordinate {m}
    0,                       !- Vertex 3 Z-coordinate {m}
    1,                       !- Vertex 4 X-coordinate {m}
    60,                      !- Vertex 4 Y-coordinate {m}
    0;                       !- Vertex 4 Z-coordinate {m}

!- Tor 5, AW_Nord, x = 6 bis 9 m, z = 0 bis 3 m, A = 9 m2, Schedule AB_2_Tor_Schedule
FenestrationSurface:Detailed,
    gate 5,                  !- Name
    Window,                  !- Surface Type
    Tor,                     !- Construction Name
    AW_Nord,                 !- Building Surface Name
    ,                        !- Outside Boundary Condition Object
    ,                        !- View Factor to Ground
    ,                        !- Frame and Divider Name
    ,                        !- Multiplier
    4,                       !- Number of Vertices
    6,                       !- Vertex 1 X-coordinate {m}
    60,                      !- Vertex 1 Y-coordinate {m}
    3,                       !- Vertex 1 Z-coordinate {m}
    9,                       !- Vertex 2 X-coordinate {m}
    60,                      !- Vertex 2 Y-coordinate {m}
    3,                       !- Vertex 2 Z-coordinate {m}
    9,                       !- Vertex 3 X-coordinate {m}
    60,                      !- Vertex 3 Y-coordinate {m}
    0,                       !- Vertex 3 Z-coordinate {m}
    6,                       !- Vertex 4 X-coordinate {m}
    60,                      !- Vertex 4 Y-coordinate {m}
    0;                       !- Vertex 4 Z-coordinate {m}

!- Tor 6, AW_Nord, x = 11 bis 14 m, z = 0 bis 3 m, A = 9 m2, Schedule AB_3_Tor_Schedule
FenestrationSurface:Detailed,
    gate 6,                  !- Name
    Window,                  !- Surface Type
    Tor,                     !- Construction Name
    AW_Nord,                 !- Building Surface Name
    ,                        !- Outside Boundary Condition Object
    ,                        !- View Factor to Ground
    ,                        !- Frame and Divider Name
    ,                        !- Multiplier
    4,                       !- Number of Vertices
    11,                      !- Vertex 1 X-coordinate {m}
    60,                      !- Vertex 1 Y-coordinate {m}
    3,                       !- Vertex 1 Z-coordinate {m}
    14,                      !- Vertex 2 X-coordinate {m}
    60,                      !- Vertex 2 Y-coordinate {m}
    3,                       !- Vertex 2 Z-coordinate {m}
    14,                      !- Vertex 3 X-coordinate {m}
    60,                      !- Vertex 3 Y-coordinate {m}
    0,                       !- Vertex 3 Z-coordinate {m}
    11,                      !- Vertex 4 X-coordinate {m}
    60,                      !- Vertex 4 Y-coordinate {m}
    0;                       !- Vertex 4 Z-coordinate {m}


!- ============================================================================
!-   THERMOSTAT UND IDEAL LOADS
!- ============================================================================

!- Reiner Heizfall: SingleHeating, Regelungsart 1. Kuehlung ist nach 4.1.1
!- ausdruecklich ausgeschlossen.
ZoneControl:Thermostat,
    Thermostat,              !- Name
    Zone_Halle,              !- Zone or ZoneList Name
    Sch_Regelungsart,        !- Control Type Schedule Name
    ThermostatSetpoint:SingleHeating, !- Control 1 Object Type
    Sollwert_Heizen;         !- Control 1 Name

ThermostatSetpoint:SingleHeating,
    Sollwert_Heizen,         !- Name
    Sch_T_soll;              !- Setpoint Temperature Schedule Name

!- Heizleistung unbegrenzt (NoLimit). Eine leistungsbegrenzte Versorgung
!- wuerde die Spanne von der Last in die Zonentemperatur verschieben; das
!- ist als Ausblick in Kapitel 8 vermerkt, nicht Gegenstand dieser Arbeit.
ZoneHVAC:IdealLoadsAirSystem,
    IdealLoads,              !- Name
    ,                        !- Availability Schedule Name
    Inlet_Node,              !- Zone Supply Air Node Name
    ,                        !- Zone Exhaust Air Node Name
    ,                        !- System Inlet Air Node Name
    50,                      !- Maximum Heating Supply Air Temperature {C}
    13,                      !- Minimum Cooling Supply Air Temperature {C}
    0.0156,                  !- Maximum Heating Supply Air Humidity Ratio {kgWater/kgDryAir}
    0.0077,                  !- Minimum Cooling Supply Air Humidity Ratio {kgWater/kgDryAir}
    NoLimit,                 !- Heating Limit
    ,                        !- Maximum Heating Air Flow Rate {m3/s}
    ,                        !- Maximum Sensible Heating Capacity {W}
    NoLimit,                 !- Cooling Limit
    ,                        !- Maximum Cooling Air Flow Rate {m3/s}
    ,                        !- Maximum Total Cooling Capacity {W}
    ,                        !- Heating Availability Schedule Name
    ,                        !- Cooling Availability Schedule Name
    None,                    !- Dehumidification Control Type
    ,                        !- Cooling Sensible Heat Ratio {dimensionless}
    None,                    !- Humidification Control Type
    ,                        !- Design Specification Outdoor Air Object Name
    ,                        !- Outdoor Air Inlet Node Name
    None,                    !- Demand Controlled Ventilation Type
    NoEconomizer,            !- Outdoor Air Economizer Type
    None,                    !- Heat Recovery Type
    ,                        !- Sensible Heat Recovery Effectiveness {dimensionless}
    ;                        !- Latent Heat Recovery Effectiveness {dimensionless}

ZoneHVAC:EquipmentList,
    EquipmentList,           !- Name
    SequentialLoad,          !- Load Distribution Scheme
    ZoneHVAC:IdealLoadsAirSystem, !- Zone Equipment 1 Object Type
    IdealLoads,              !- Zone Equipment 1 Name
    1,                       !- Zone Equipment 1 Cooling Sequence
    1,                       !- Zone Equipment 1 Heating or No-Load Sequence
    ,                        !- Zone Equipment 1 Sequential Cooling Fraction Schedule Name
    ;                        !- Zone Equipment 1 Sequential Heating Fraction Schedule Name

ZoneHVAC:EquipmentConnections,
    Zone_Halle,              !- Zone Name
    EquipmentList,           !- Zone Conditioning Equipment List Name
    Inlet_Node,              !- Zone Air Inlet Node or NodeList Name
    ,                        !- Zone Air Exhaust Node or NodeList Name
    Zone_Node,               !- Zone Air Node Name
    Return_Node;             !- Zone Return Air Node or NodeList Name


!- ============================================================================
!-   INTERNE GEWINNE UND SPEICHERMASSE
!- ============================================================================

!- Uebernommen aus dem Referenzmodell hinter Kohler et al. (2025)
!- (Hausladen et al.), dort fuer eine Halle mit 67.2 m2 Grundflaeche.
!- Skaliert mit dem Verhaeltnis der Grundflaechen 900 / 67.2 = 13.3929.
!- ANNAHME: interne Gewinne und Speichermasse sind an die Nutzflaeche
!- gebunden (Regal, Ware, Flurfoerderzeuge), nicht an das Luftvolumen.
!- Die Referenzhalle ist 4,80 m hoch, diese Halle 12,00 m - eine
!- volumenbezogene Skalierung ergaebe den Faktor 33,48 statt 13.3929.
ElectricEquipment,
    Interne_Gewinne_Geraete, !- Name
    Zone_Halle,              !- Zone or ZoneList or Space or SpaceList Name
    Sch_Geraete,             !- Schedule Name
    EquipmentLevel,          !- Design Level Calculation Method
    9375,                    !- Design Level {W}
    ,                        !- Watts per Floor Area {W/m2}
    ,                        !- Watts per Person {W/person}
    ,                        !- Fraction Latent
    ,                        !- Fraction Radiant
    ,                        !- Fraction Lost
    General;                 !- End-Use Subcategory

InternalMass,
    Interne_Masse_Metall,    !- Name
    Metall_IM,               !- Construction Name
    Zone_Halle,              !- Zone or ZoneList Name
    ,                        !- Space or SpaceList Name
    1607.14;                 !- Surface Area {m2}

InternalMass,
    Interne_Masse_Holz,      !- Name
    Holz_IM,                 !- Construction Name
    Zone_Halle,              !- Zone or ZoneList Name
    ,                        !- Space or SpaceList Name
    803.57;                  !- Surface Area {m2}


!- ============================================================================
!-   AIRFLOWNETWORK
!- ============================================================================

!- Wind Pressure Coefficient Type = SurfaceAverageCalculation wie in
!- Kapitel 5 (Modellansatz AFN_E+). Azimuth Angle of Long Axis = 0 Grad
!- (Laengsachse 60 m, mit dem Gebaeude gedreht),
!- Ratio Short/Long = 0.25.
AirflowNetwork:SimulationControl,
    AFN_Heizperiode,         !- Name
    MultizoneWithoutDistribution, !- AirflowNetwork Control
    SurfaceAverageCalculation, !- Wind Pressure Coefficient Type
    ExternalNode,            !- Height Selection for Local Wind Pressure Calculation
    LowRise,                 !- Building Type
    500,                     !- Maximum Number of Iterations {dimensionless}
    LinearInitializationMethod, !- Initialization Type
    0.0001,                  !- Relative Airflow Convergence Tolerance {dimensionless}
    0.000001,                !- Absolute Airflow Convergence Tolerance {kg/s}
    -0.5,                    !- Convergence Acceleration Limit {dimensionless}
    0,                       !- Azimuth Angle of Long Axis of Building {deg}
    0.25,                    !- Ratio of Building Width Along Short Axis to Width Along Long Axis
    No,                      !- Height Dependence of External Node Temperature
    SkylineLU,               !- Solver
    No,                      !- Allow Unsupported Zone Equipment
    No;                      !- Do Distribution Duct Sizing Calculation

AirflowNetwork:MultiZone:Zone,
    Zone_Halle,              !- Zone Name
    Constant,                !- Ventilation Control Mode
    ,                        !- Ventilation Control Zone Temperature Setpoint Schedule Name
    ,                        !- Minimum Venting Open Factor {dimensionless}
    0,                       !- Indoor and Outdoor Temperature Difference Lower Limit For Maximum Venting Open Factor {deltaC}
    100,                     !- Indoor and Outdoor Temperature Difference Upper Limit for Minimum Venting Open Factor {deltaC}
    0,                       !- Indoor and Outdoor Enthalpy Difference Lower Limit For Maximum Venting Open Factor {deltaJ/kg}
    300000;                  !- Indoor and Outdoor Enthalpy Difference Upper Limit for Minimum Venting Open Factor {deltaJ/kg}

!- Grundinfiltration als Huellenleckage. ZoneInfiltration:DesignFlowRate
!- ist unter AirflowNetwork Control = MultizoneWithoutDistribution
!- unwirksam - die Input Output Reference 25.2 sagt dazu woertlich: 'Any
!- ZoneInfiltration:*, ZoneVentilation:*, ZoneMixing and ZoneCrossMixing
!- objects specified in the input data file are not simulated.'
!- Der Koeffizient ist auf die Netto-Aussenflaechen verteilt
!- (AW_Sued 153 m2, AW_Nord 153 m2, Dach 900 m2, Summe 1206 m2) und in
!- Stufe 1 so kalibriert, dass das Heizperiodenmittel 0.025 1/h betraegt.
AirflowNetwork:MultiZone:Surface:Crack,
    Crack_AW_Sued,           !- Name
    0.00300865,              !- Air Mass Flow Coefficient at Reference Conditions {kg/s}
    0.65;                    !- Air Mass Flow Exponent {dimensionless}

AirflowNetwork:MultiZone:Surface,
    AW_Sued,                 !- Surface Name
    Crack_AW_Sued,           !- Leakage Component Name
    ,                        !- External Node Name
    1,                       !- Window/Door Opening Factor, or Crack Factor {dimensionless}
    Constant;                !- Ventilation Control Mode

AirflowNetwork:MultiZone:Surface:Crack,
    Crack_AW_Nord,           !- Name
    0.00300865,              !- Air Mass Flow Coefficient at Reference Conditions {kg/s}
    0.65;                    !- Air Mass Flow Exponent {dimensionless}

AirflowNetwork:MultiZone:Surface,
    AW_Nord,                 !- Surface Name
    Crack_AW_Nord,           !- Leakage Component Name
    ,                        !- External Node Name
    1,                       !- Window/Door Opening Factor, or Crack Factor {dimensionless}
    Constant;                !- Ventilation Control Mode

AirflowNetwork:MultiZone:Surface:Crack,
    Crack_Dach,              !- Name
    0.01769797,              !- Air Mass Flow Coefficient at Reference Conditions {kg/s}
    0.65;                    !- Air Mass Flow Exponent {dimensionless}

AirflowNetwork:MultiZone:Surface,
    Dach,                    !- Surface Name
    Crack_Dach,              !- Leakage Component Name
    ,                        !- External Node Name
    1,                       !- Window/Door Opening Factor, or Crack Factor {dimensionless}
    Constant;                !- Ventilation Control Mode

!- Ein AirflowNetwork:MultiZone:Surface je Tor. Der Oeffnungsfaktor wird
!- NICHT ueber Venting Availability gesteuert: dieses Feld ist rein
!- binaer ('A value greater than zero means venting can occur',
!- Input Output Reference 25.2). Der Zwischenwert 0,048 des
!- Andockzustands wuerde dort als voll geoeffnetes Tor gelesen.
!- Die Steuerung erfolgt deshalb ueber den EMS-Aktor weiter unten.
AirflowNetwork:MultiZone:Surface,
    gate 1,                  !- Surface Name
    AFN_Tor,                 !- Leakage Component Name
    ,                        !- External Node Name
    1,                       !- Window/Door Opening Factor, or Crack Factor {dimensionless}
    Constant,                !- Ventilation Control Mode
    ,                        !- Ventilation Control Zone Temperature Setpoint Schedule Name
    ,                        !- Minimum Venting Open Factor {dimensionless}
    ,                        !- Indoor and Outdoor Temperature Difference Lower Limit For Maximum Venting Open Factor {deltaC}
    100,                     !- Indoor and Outdoor Temperature Difference Upper Limit for Minimum Venting Open Factor {deltaC}
    ,                        !- Indoor and Outdoor Enthalpy Difference Lower Limit For Maximum Venting Open Factor {deltaJ/kg}
    300000,                  !- Indoor and Outdoor Enthalpy Difference Upper Limit for Minimum Venting Open Factor {deltaJ/kg}
    Sch_Immer_an,            !- Venting Availability Schedule Name
    ,                        !- Occupant Ventilation Control Name
    PolygonHeight,           !- Equivalent Rectangle Method
    1;                       !- Equivalent Rectangle Aspect Ratio {dimensionless}

AirflowNetwork:MultiZone:Surface,
    gate 2,                  !- Surface Name
    AFN_Tor,                 !- Leakage Component Name
    ,                        !- External Node Name
    1,                       !- Window/Door Opening Factor, or Crack Factor {dimensionless}
    Constant,                !- Ventilation Control Mode
    ,                        !- Ventilation Control Zone Temperature Setpoint Schedule Name
    ,                        !- Minimum Venting Open Factor {dimensionless}
    ,                        !- Indoor and Outdoor Temperature Difference Lower Limit For Maximum Venting Open Factor {deltaC}
    100,                     !- Indoor and Outdoor Temperature Difference Upper Limit for Minimum Venting Open Factor {deltaC}
    ,                        !- Indoor and Outdoor Enthalpy Difference Lower Limit For Maximum Venting Open Factor {deltaJ/kg}
    300000,                  !- Indoor and Outdoor Enthalpy Difference Upper Limit for Minimum Venting Open Factor {deltaJ/kg}
    Sch_Immer_an,            !- Venting Availability Schedule Name
    ,                        !- Occupant Ventilation Control Name
    PolygonHeight,           !- Equivalent Rectangle Method
    1;                       !- Equivalent Rectangle Aspect Ratio {dimensionless}

AirflowNetwork:MultiZone:Surface,
    gate 3,                  !- Surface Name
    AFN_Tor,                 !- Leakage Component Name
    ,                        !- External Node Name
    1,                       !- Window/Door Opening Factor, or Crack Factor {dimensionless}
    Constant,                !- Ventilation Control Mode
    ,                        !- Ventilation Control Zone Temperature Setpoint Schedule Name
    ,                        !- Minimum Venting Open Factor {dimensionless}
    ,                        !- Indoor and Outdoor Temperature Difference Lower Limit For Maximum Venting Open Factor {deltaC}
    100,                     !- Indoor and Outdoor Temperature Difference Upper Limit for Minimum Venting Open Factor {deltaC}
    ,                        !- Indoor and Outdoor Enthalpy Difference Lower Limit For Maximum Venting Open Factor {deltaJ/kg}
    300000,                  !- Indoor and Outdoor Enthalpy Difference Upper Limit for Minimum Venting Open Factor {deltaJ/kg}
    Sch_Immer_an,            !- Venting Availability Schedule Name
    ,                        !- Occupant Ventilation Control Name
    PolygonHeight,           !- Equivalent Rectangle Method
    1;                       !- Equivalent Rectangle Aspect Ratio {dimensionless}

AirflowNetwork:MultiZone:Surface,
    gate 4,                  !- Surface Name
    AFN_Tor,                 !- Leakage Component Name
    ,                        !- External Node Name
    1,                       !- Window/Door Opening Factor, or Crack Factor {dimensionless}
    Constant,                !- Ventilation Control Mode
    ,                        !- Ventilation Control Zone Temperature Setpoint Schedule Name
    ,                        !- Minimum Venting Open Factor {dimensionless}
    ,                        !- Indoor and Outdoor Temperature Difference Lower Limit For Maximum Venting Open Factor {deltaC}
    100,                     !- Indoor and Outdoor Temperature Difference Upper Limit for Minimum Venting Open Factor {deltaC}
    ,                        !- Indoor and Outdoor Enthalpy Difference Lower Limit For Maximum Venting Open Factor {deltaJ/kg}
    300000,                  !- Indoor and Outdoor Enthalpy Difference Upper Limit for Minimum Venting Open Factor {deltaJ/kg}
    Sch_Immer_an,            !- Venting Availability Schedule Name
    ,                        !- Occupant Ventilation Control Name
    PolygonHeight,           !- Equivalent Rectangle Method
    1;                       !- Equivalent Rectangle Aspect Ratio {dimensionless}

AirflowNetwork:MultiZone:Surface,
    gate 5,                  !- Surface Name
    AFN_Tor,                 !- Leakage Component Name
    ,                        !- External Node Name
    1,                       !- Window/Door Opening Factor, or Crack Factor {dimensionless}
    Constant,                !- Ventilation Control Mode
    ,                        !- Ventilation Control Zone Temperature Setpoint Schedule Name
    ,                        !- Minimum Venting Open Factor {dimensionless}
    ,                        !- Indoor and Outdoor Temperature Difference Lower Limit For Maximum Venting Open Factor {deltaC}
    100,                     !- Indoor and Outdoor Temperature Difference Upper Limit for Minimum Venting Open Factor {deltaC}
    ,                        !- Indoor and Outdoor Enthalpy Difference Lower Limit For Maximum Venting Open Factor {deltaJ/kg}
    300000,                  !- Indoor and Outdoor Enthalpy Difference Upper Limit for Minimum Venting Open Factor {deltaJ/kg}
    Sch_Immer_an,            !- Venting Availability Schedule Name
    ,                        !- Occupant Ventilation Control Name
    PolygonHeight,           !- Equivalent Rectangle Method
    1;                       !- Equivalent Rectangle Aspect Ratio {dimensionless}

AirflowNetwork:MultiZone:Surface,
    gate 6,                  !- Surface Name
    AFN_Tor,                 !- Leakage Component Name
    ,                        !- External Node Name
    1,                       !- Window/Door Opening Factor, or Crack Factor {dimensionless}
    Constant,                !- Ventilation Control Mode
    ,                        !- Ventilation Control Zone Temperature Setpoint Schedule Name
    ,                        !- Minimum Venting Open Factor {dimensionless}
    ,                        !- Indoor and Outdoor Temperature Difference Lower Limit For Maximum Venting Open Factor {deltaC}
    100,                     !- Indoor and Outdoor Temperature Difference Upper Limit for Minimum Venting Open Factor {deltaC}
    ,                        !- Indoor and Outdoor Enthalpy Difference Lower Limit For Maximum Venting Open Factor {deltaJ/kg}
    300000,                  !- Indoor and Outdoor Enthalpy Difference Upper Limit for Minimum Venting Open Factor {deltaJ/kg}
    Sch_Immer_an,            !- Venting Availability Schedule Name
    ,                        !- Occupant Ventilation Control Name
    PolygonHeight,           !- Equivalent Rectangle Method
    1;                       !- Equivalent Rectangle Aspect Ratio {dimensionless}

!- Drei Saetze statt zwei. Der Oeffnungsfaktor ist bei DetailedOpening
!- KEIN Flaechenanteil: die durchstroemte Flaeche folgt aus
!- Width Factor x Height Factor x Fensterflaeche, beide Faktoren werden
!- zwischen den Saetzen linear interpoliert. Mit nur zwei Saetzen ergaebe
!- der Oeffnungsfaktor 0,048 eine Flaeche von 0,048 x 0,048 x 9 = 0.0207 m2
!- statt der beabsichtigten 0.432 m2.
!- Satz 2 bildet den angedockten LKW ab: umlaufende Dichtungsleckage,
!- flaechengleich abgebildet als waagerechter Spalt in Toroeffnungsmitte
!- (Width Factor 1, Height Factor 0.048, Start Height Factor 0.476).
!- Die Lage in Mittenhoehe haelt den Auftriebsterm neutral - ein Bodenspalt
!- wuerde einen gerichteten Auftriebsstrom erzeugen, den WSOA und DFR
!- konstruktionsbedingt nicht abbilden koennen. SETZUNG, siehe README.
AirflowNetwork:MultiZone:Component:DetailedOpening,
    AFN_Tor,                 !- Name
    0.001,                   !- Air Mass Flow Coefficient When Opening is Closed {kg/s-m}
    0.65,                    !- Air Mass Flow Exponent When Opening is Closed {dimensionless}
    NonPivoted,              !- Type of Rectangular Large Vertical Opening (LVO)
    0,                       !- Extra Crack Length or Height of Pivoting Axis {m}
    3,                       !- Number of Sets of Opening Factor Data
    0,                       !- Opening Factor 1 {dimensionless}
    0.001,                   !- Discharge Coefficient for Opening Factor 1 {dimensionless}
    0,                       !- Width Factor for Opening Factor 1 {dimensionless}
    0,                       !- Height Factor for Opening Factor 1 {dimensionless}
    0,                       !- Start Height Factor for Opening Factor 1 {dimensionless}
    0.048,                   !- Opening Factor 2 {dimensionless}
    0.62,                    !- Discharge Coefficient for Opening Factor 2 {dimensionless}
    1,                       !- Width Factor for Opening Factor 2 {dimensionless}
    0.048,                   !- Height Factor for Opening Factor 2 {dimensionless}
    0.476,                   !- Start Height Factor for Opening Factor 2 {dimensionless}
    1,                       !- Opening Factor 3 {dimensionless}
    0.62,                    !- Discharge Coefficient for Opening Factor 3 {dimensionless}
    1,                       !- Width Factor for Opening Factor 3 {dimensionless}
    1,                       !- Height Factor for Opening Factor 3 {dimensionless}
    0;                       !- Start Height Factor for Opening Factor 3 {dimensionless}


!- ============================================================================
!-   ENERGYMANAGEMENTSYSTEM  (OEFFNUNGSFAKTOR DER TORE)
!- ============================================================================

!- Der Aktor 'AirFlow Network Window/Door Opening' / 'Venting Opening
!- Factor' setzt den Oeffnungsfaktor je Zeitschritt auf den Schedulewert
!- (0 zu, 0.048 angedockt, 1 offen). Application Guide for EMS, Air Movement.
!- Kennung des Aktors ist der Name der Fensterflaeche, nicht des
!- AirflowNetwork-Objekts.
EnergyManagementSystem:Sensor,
    Sens_Tor1,               !- Name
    AN_1_Tor_Schedule,       !- Output:Variable or Output:Meter Index Key Name
    Schedule Value;          !- Output:Variable or Output:Meter Name

EnergyManagementSystem:Sensor,
    Sens_Tor2,               !- Name
    AN_2_Tor_Schedule,       !- Output:Variable or Output:Meter Index Key Name
    Schedule Value;          !- Output:Variable or Output:Meter Name

EnergyManagementSystem:Sensor,
    Sens_Tor3,               !- Name
    AN_3_Tor_Schedule,       !- Output:Variable or Output:Meter Index Key Name
    Schedule Value;          !- Output:Variable or Output:Meter Name

EnergyManagementSystem:Sensor,
    Sens_Tor4,               !- Name
    AB_1_Tor_Schedule,       !- Output:Variable or Output:Meter Index Key Name
    Schedule Value;          !- Output:Variable or Output:Meter Name

EnergyManagementSystem:Sensor,
    Sens_Tor5,               !- Name
    AB_2_Tor_Schedule,       !- Output:Variable or Output:Meter Index Key Name
    Schedule Value;          !- Output:Variable or Output:Meter Name

EnergyManagementSystem:Sensor,
    Sens_Tor6,               !- Name
    AB_3_Tor_Schedule,       !- Output:Variable or Output:Meter Index Key Name
    Schedule Value;          !- Output:Variable or Output:Meter Name

EnergyManagementSystem:Actuator,
    Act_Tor1,                !- Name
    gate 1,                  !- Actuated Component Unique Name
    AirFlow Network Window/Door Opening, !- Actuated Component Type
    Venting Opening Factor;  !- Actuated Component Control Type

EnergyManagementSystem:Actuator,
    Act_Tor2,                !- Name
    gate 2,                  !- Actuated Component Unique Name
    AirFlow Network Window/Door Opening, !- Actuated Component Type
    Venting Opening Factor;  !- Actuated Component Control Type

EnergyManagementSystem:Actuator,
    Act_Tor3,                !- Name
    gate 3,                  !- Actuated Component Unique Name
    AirFlow Network Window/Door Opening, !- Actuated Component Type
    Venting Opening Factor;  !- Actuated Component Control Type

EnergyManagementSystem:Actuator,
    Act_Tor4,                !- Name
    gate 4,                  !- Actuated Component Unique Name
    AirFlow Network Window/Door Opening, !- Actuated Component Type
    Venting Opening Factor;  !- Actuated Component Control Type

EnergyManagementSystem:Actuator,
    Act_Tor5,                !- Name
    gate 5,                  !- Actuated Component Unique Name
    AirFlow Network Window/Door Opening, !- Actuated Component Type
    Venting Opening Factor;  !- Actuated Component Control Type

EnergyManagementSystem:Actuator,
    Act_Tor6,                !- Name
    gate 6,                  !- Actuated Component Unique Name
    AirFlow Network Window/Door Opening, !- Actuated Component Type
    Venting Opening Factor;  !- Actuated Component Control Type

EnergyManagementSystem:Program,
    Prog_Toroeffnung,        !- Name
    SET Act_Tor1 = Sens_Tor1,
    SET Act_Tor2 = Sens_Tor2,
    SET Act_Tor3 = Sens_Tor3,
    SET Act_Tor4 = Sens_Tor4,
    SET Act_Tor5 = Sens_Tor5,
    SET Act_Tor6 = Sens_Tor6;

EnergyManagementSystem:ProgramCallingManager,
    Mgr_Toroeffnung,         !- Name
    BeginTimestepBeforePredictor, !- EnergyPlus Model Calling Point
    Prog_Toroeffnung;        !- Program Name 1


!- ============================================================================
!-   OUTPUT
!- ============================================================================

Output:VariableDictionary,
    IDF,                     !- Key Field
    Unsorted;                !- Sort Option

Output:Table:SummaryReports,
    AllSummary;              !- Report 1 Name

OutputControl:Table:Style,
    HTML;                    !- Column Separator

Output:SQLite,
    SimpleAndTabular;        !- Option Type

Output:Diagnostics,
    DisplayAllWarnings,      !- Key 1
    DisplayAdvancedReportVariables; !- Key 2

!- Feine Aufloesung nur fuer die Groessen, die 6.4 braucht.
Output:Variable,
    gate 1,                  !- Key Value
    AFN Linkage Node 1 to Node 2 Volume Flow Rate, !- Variable Name
    Timestep;                !- Reporting Frequency

Output:Variable,
    gate 1,                  !- Key Value
    AFN Linkage Node 2 to Node 1 Volume Flow Rate, !- Variable Name
    Timestep;                !- Reporting Frequency

Output:Variable,
    gate 1,                  !- Key Value
    AFN Surface Venting Window or Door Opening Factor, !- Variable Name
    Timestep;                !- Reporting Frequency

Output:Variable,
    gate 2,                  !- Key Value
    AFN Linkage Node 1 to Node 2 Volume Flow Rate, !- Variable Name
    Timestep;                !- Reporting Frequency

Output:Variable,
    gate 2,                  !- Key Value
    AFN Linkage Node 2 to Node 1 Volume Flow Rate, !- Variable Name
    Timestep;                !- Reporting Frequency

Output:Variable,
    gate 2,                  !- Key Value
    AFN Surface Venting Window or Door Opening Factor, !- Variable Name
    Timestep;                !- Reporting Frequency

Output:Variable,
    gate 3,                  !- Key Value
    AFN Linkage Node 1 to Node 2 Volume Flow Rate, !- Variable Name
    Timestep;                !- Reporting Frequency

Output:Variable,
    gate 3,                  !- Key Value
    AFN Linkage Node 2 to Node 1 Volume Flow Rate, !- Variable Name
    Timestep;                !- Reporting Frequency

Output:Variable,
    gate 3,                  !- Key Value
    AFN Surface Venting Window or Door Opening Factor, !- Variable Name
    Timestep;                !- Reporting Frequency

Output:Variable,
    gate 4,                  !- Key Value
    AFN Linkage Node 1 to Node 2 Volume Flow Rate, !- Variable Name
    Timestep;                !- Reporting Frequency

Output:Variable,
    gate 4,                  !- Key Value
    AFN Linkage Node 2 to Node 1 Volume Flow Rate, !- Variable Name
    Timestep;                !- Reporting Frequency

Output:Variable,
    gate 4,                  !- Key Value
    AFN Surface Venting Window or Door Opening Factor, !- Variable Name
    Timestep;                !- Reporting Frequency

Output:Variable,
    gate 5,                  !- Key Value
    AFN Linkage Node 1 to Node 2 Volume Flow Rate, !- Variable Name
    Timestep;                !- Reporting Frequency

Output:Variable,
    gate 5,                  !- Key Value
    AFN Linkage Node 2 to Node 1 Volume Flow Rate, !- Variable Name
    Timestep;                !- Reporting Frequency

Output:Variable,
    gate 5,                  !- Key Value
    AFN Surface Venting Window or Door Opening Factor, !- Variable Name
    Timestep;                !- Reporting Frequency

Output:Variable,
    gate 6,                  !- Key Value
    AFN Linkage Node 1 to Node 2 Volume Flow Rate, !- Variable Name
    Timestep;                !- Reporting Frequency

Output:Variable,
    gate 6,                  !- Key Value
    AFN Linkage Node 2 to Node 1 Volume Flow Rate, !- Variable Name
    Timestep;                !- Reporting Frequency

Output:Variable,
    gate 6,                  !- Key Value
    AFN Surface Venting Window or Door Opening Factor, !- Variable Name
    Timestep;                !- Reporting Frequency

Output:Variable,
    AW_Sued,                 !- Key Value
    AFN Linkage Node 1 to Node 2 Volume Flow Rate, !- Variable Name
    Timestep;                !- Reporting Frequency

Output:Variable,
    AW_Sued,                 !- Key Value
    AFN Linkage Node 2 to Node 1 Volume Flow Rate, !- Variable Name
    Timestep;                !- Reporting Frequency

Output:Variable,
    AW_Nord,                 !- Key Value
    AFN Linkage Node 1 to Node 2 Volume Flow Rate, !- Variable Name
    Timestep;                !- Reporting Frequency

Output:Variable,
    AW_Nord,                 !- Key Value
    AFN Linkage Node 2 to Node 1 Volume Flow Rate, !- Variable Name
    Timestep;                !- Reporting Frequency

Output:Variable,
    Dach,                    !- Key Value
    AFN Linkage Node 1 to Node 2 Volume Flow Rate, !- Variable Name
    Timestep;                !- Reporting Frequency

Output:Variable,
    Dach,                    !- Key Value
    AFN Linkage Node 2 to Node 1 Volume Flow Rate, !- Variable Name
    Timestep;                !- Reporting Frequency

Output:Variable,
    AN_1_Tor_Schedule,       !- Key Value
    Schedule Value,          !- Variable Name
    Timestep;                !- Reporting Frequency

Output:Variable,
    AN_2_Tor_Schedule,       !- Key Value
    Schedule Value,          !- Variable Name
    Timestep;                !- Reporting Frequency

Output:Variable,
    AN_3_Tor_Schedule,       !- Key Value
    Schedule Value,          !- Variable Name
    Timestep;                !- Reporting Frequency

Output:Variable,
    AB_1_Tor_Schedule,       !- Key Value
    Schedule Value,          !- Variable Name
    Timestep;                !- Reporting Frequency

Output:Variable,
    AB_2_Tor_Schedule,       !- Key Value
    Schedule Value,          !- Variable Name
    Timestep;                !- Reporting Frequency

Output:Variable,
    AB_3_Tor_Schedule,       !- Key Value
    Schedule Value,          !- Variable Name
    Timestep;                !- Reporting Frequency

Output:Variable,
    *,                       !- Key Value
    Zone Ideal Loads Supply Air Total Heating Rate, !- Variable Name
    Timestep;                !- Reporting Frequency

Output:Variable,
    Zone_Halle,              !- Key Value
    Zone Mean Air Temperature, !- Variable Name
    Timestep;                !- Reporting Frequency

Output:Variable,
    Environment,             !- Key Value
    Site Outdoor Air Drybulb Temperature, !- Variable Name
    Timestep;                !- Reporting Frequency

Output:Variable,
    Environment,             !- Key Value
    Site Wind Speed,         !- Variable Name
    Timestep;                !- Reporting Frequency

Output:Variable,
    Environment,             !- Key Value
    Site Wind Direction,     !- Variable Name
    Timestep;                !- Reporting Frequency

!- Zusaetzlich stuendlich fuer Dauerlinie und Bilanzen.
Output:Variable,
    *,                       !- Key Value
    Zone Ideal Loads Supply Air Total Heating Energy, !- Variable Name
    Hourly;                  !- Reporting Frequency

Output:Variable,
    *,                       !- Key Value
    Zone Ideal Loads Supply Air Total Heating Rate, !- Variable Name
    Hourly;                  !- Reporting Frequency

