!-   ===========================================================================
!-   Variante B2 -- Site:WeatherStation UND Site:HeightVariation mit Exponent 0
!-   Aufbau der Notiz vom 28.07.2026: flaches Profil, u = u_EPW.
!-   Erzeugt von make_idf.py -- Masterarbeit M13, Kapitel 5.3
!-   ===========================================================================

Version, 25.2;

SimulationControl,
    No,                      !- Do Zone Sizing Calculation
    No,                      !- Do System Sizing Calculation
    No,                      !- Do Plant Sizing Calculation
    Yes,                     !- Run Simulation for Sizing Periods
    No;                      !- Run Simulation for Weather File Run Periods

Building,
    Windprofil_Test,         !- Name
    0.0,                     !- North Axis {deg}
    Country,                 !- Terrain
    0.04,                    !- Loads Convergence Tolerance Value {W}
    0.4,                     !- Temperature Convergence Tolerance Value {deltaC}
    FullExterior,            !- Solar Distribution
    25,                      !- Maximum Number of Warmup Days
    6;                       !- Minimum Number of Warmup Days

Timestep, 4;

GlobalGeometryRules,
    UpperLeftCorner,         !- Starting Vertex Position
    CounterClockWise,        !- Vertex Entry Direction
    World;                   !- Coordinate System

Site:Location,
    Augsburg_Test,           !- Name
    48.35,                   !- Latitude {deg}
    10.90,                   !- Longitude {deg}
    1.0,                     !- Time Zone {hr}
    494.0;                   !- Elevation {m}

SizingPeriod:DesignDay,
    Isotherm_6.500mps,  !- Name
    7,                       !- Month
    21,                      !- Day of Month
    SummerDesignDay,         !- Day Type
    17.0,                    !- Maximum Dry-Bulb Temperature {C}
    0.0,                     !- Daily Dry-Bulb Temperature Range {deltaC}
    DefaultMultipliers,      !- Dry-Bulb Temperature Range Modifier Type
    ,                        !- Dry-Bulb Temperature Range Modifier Day Schedule Name
    Wetbulb,                 !- Humidity Condition Type
    12.0,                    !- Wetbulb or DewPoint at Maximum Dry-Bulb {C}
    ,                        !- Humidity Condition Day Schedule Name
    ,                        !- Humidity Ratio at Maximum Dry-Bulb
    ,                        !- Enthalpy at Maximum Dry-Bulb
    ,                        !- Daily Wet-Bulb Temperature Range
    95500,                   !- Barometric Pressure {Pa}
    6.500,                   !- Wind Speed {m/s}   <== Referenzgeschwindigkeit
    270,                     !- Wind Direction {deg}
    No,                      !- Rain Indicator
    No,                      !- Snow Indicator
    No,                      !- Daylight Saving Time Indicator
    ASHRAEClearSky,          !- Solar Model Indicator
    ,                        !- Beam Solar Day Schedule Name
    ,                        !- Diffuse Solar Day Schedule Name
    ,                        !- ASHRAE Clear Sky Optical Depth for Beam Irradiance
    ,                        !- ASHRAE Clear Sky Optical Depth for Diffuse Irradiance
    0.0;                     !- Sky Clearness   <== kein Solareintrag

Material,
    Beton_200mm,             !- Name
    MediumRough,             !- Roughness
    0.200,                   !- Thickness {m}
    2.100,                   !- Conductivity {W/m-K}
    2400.0,                  !- Density {kg/m3}
    880.0,                   !- Specific Heat {J/kg-K}
    0.90,                    !- Thermal Absorptance
    0.70,                    !- Solar Absorptance
    0.70;                    !- Visible Absorptance

Construction,
    Wand_Beton,              !- Name
    Beton_200mm;             !- Outside Layer

ScheduleTypeLimits,
    Fraction,                !- Name
    0.0,                     !- Lower Limit Value
    1.0,                     !- Upper Limit Value
    Continuous;              !- Numeric Type

Schedule:Constant,
    Sch_Immer_1,             !- Name
    Fraction,                !- Schedule Type Limits Name
    1.0;                     !- Hourly Value

!-   Vorfaktor der Messstation auf 1 gesetzt.
Site:WeatherStation,
    10.0,                    !- Wind Sensor Height Above Ground {m}
    0.0,                     !- Wind Speed Profile Exponent
    270.0,                   !- Wind Speed Profile Boundary Layer Thickness {m}
    1.5;                     !- Air Temperature Sensor Height Above Ground {m}

!-   Beide Exponenten 0 -> u(z) = u_EPW, hoehenunabhaengig.
Site:HeightVariation,
    0.0,                     !- Wind Speed Profile Exponent
    270.0,                   !- Wind Speed Profile Boundary Layer Thickness {m}
    0.0;                     !- Air Temperature Gradient Coefficient {K/m}

Zone,
    Z_TOR_ZSP_1P70,          !- Name
    0.0,                     !- Direction of Relative North {deg}
    0.0,                     !- X Origin {m}
    0.0,                     !- Y Origin {m}
    0.0,                     !- Z Origin {m}
    1,                       !- Type
    1,                       !- Multiplier
    ,                        !- Ceiling Height {m}
    ,                        !- Volume {m3}
    ,                        !- Floor Area {m2}
    ,                        !- Zone Inside Convection Algorithm
    ,                        !- Zone Outside Convection Algorithm
    Yes;                     !- Part of Total Floor Area

!-   Schwerpunkthoehe dieser Zone: 1.700 m

BuildingSurface:Detailed,
    Z_TOR_ZSP_1P70_Floor,    !- Name
    Floor,                   !- Surface Type
    Wand_Beton,              !- Construction Name
    Z_TOR_ZSP_1P70,          !- Zone Name
    ,                        !- Space Name
    Adiabatic,               !- Outside Boundary Condition
    ,                        !- Outside Boundary Condition Object
    NoSun,                   !- Sun Exposure
    NoWind,                  !- Wind Exposure
    ,                        !- View Factor to Ground
    4,                       !- Number of Vertices
    0.000, 0.000, 0.000,      !- Vertex 1
    0.000, 10.000, 0.000,      !- Vertex 2
    10.000, 10.000, 0.000,      !- Vertex 3
    10.000, 0.000, 0.000;      !- Vertex 4

BuildingSurface:Detailed,
    Z_TOR_ZSP_1P70_Roof,     !- Name
    Roof,                    !- Surface Type
    Wand_Beton,              !- Construction Name
    Z_TOR_ZSP_1P70,          !- Zone Name
    ,                        !- Space Name
    Outdoors,                !- Outside Boundary Condition
    ,                        !- Outside Boundary Condition Object
    SunExposed,              !- Sun Exposure
    WindExposed,             !- Wind Exposure
    ,                        !- View Factor to Ground
    4,                       !- Number of Vertices
    0.000, 10.000, 3.400,      !- Vertex 1
    0.000, 0.000, 3.400,      !- Vertex 2
    10.000, 0.000, 3.400,      !- Vertex 3
    10.000, 10.000, 3.400;      !- Vertex 4

BuildingSurface:Detailed,
    Z_TOR_ZSP_1P70_Wall_S,   !- Name
    Wall,                    !- Surface Type
    Wand_Beton,              !- Construction Name
    Z_TOR_ZSP_1P70,          !- Zone Name
    ,                        !- Space Name
    Outdoors,                !- Outside Boundary Condition
    ,                        !- Outside Boundary Condition Object
    SunExposed,              !- Sun Exposure
    WindExposed,             !- Wind Exposure
    ,                        !- View Factor to Ground
    4,                       !- Number of Vertices
    0.000, 0.000, 3.400,      !- Vertex 1
    0.000, 0.000, 0.000,      !- Vertex 2
    10.000, 0.000, 0.000,      !- Vertex 3
    10.000, 0.000, 3.400;      !- Vertex 4

BuildingSurface:Detailed,
    Z_TOR_ZSP_1P70_Wall_E,   !- Name
    Wall,                    !- Surface Type
    Wand_Beton,              !- Construction Name
    Z_TOR_ZSP_1P70,          !- Zone Name
    ,                        !- Space Name
    Adiabatic,               !- Outside Boundary Condition
    ,                        !- Outside Boundary Condition Object
    NoSun,                   !- Sun Exposure
    NoWind,                  !- Wind Exposure
    ,                        !- View Factor to Ground
    4,                       !- Number of Vertices
    10.000, 0.000, 3.400,      !- Vertex 1
    10.000, 0.000, 0.000,      !- Vertex 2
    10.000, 10.000, 0.000,      !- Vertex 3
    10.000, 10.000, 3.400;      !- Vertex 4

BuildingSurface:Detailed,
    Z_TOR_ZSP_1P70_Wall_N,   !- Name
    Wall,                    !- Surface Type
    Wand_Beton,              !- Construction Name
    Z_TOR_ZSP_1P70,          !- Zone Name
    ,                        !- Space Name
    Adiabatic,               !- Outside Boundary Condition
    ,                        !- Outside Boundary Condition Object
    NoSun,                   !- Sun Exposure
    NoWind,                  !- Wind Exposure
    ,                        !- View Factor to Ground
    4,                       !- Number of Vertices
    10.000, 10.000, 3.400,      !- Vertex 1
    10.000, 10.000, 0.000,      !- Vertex 2
    0.000, 10.000, 0.000,      !- Vertex 3
    0.000, 10.000, 3.400;      !- Vertex 4

BuildingSurface:Detailed,
    Z_TOR_ZSP_1P70_Wall_W,   !- Name
    Wall,                    !- Surface Type
    Wand_Beton,              !- Construction Name
    Z_TOR_ZSP_1P70,          !- Zone Name
    ,                        !- Space Name
    Adiabatic,               !- Outside Boundary Condition
    ,                        !- Outside Boundary Condition Object
    NoSun,                   !- Sun Exposure
    NoWind,                  !- Wind Exposure
    ,                        !- View Factor to Ground
    4,                       !- Number of Vertices
    0.000, 10.000, 3.400,      !- Vertex 1
    0.000, 10.000, 0.000,      !- Vertex 2
    0.000, 0.000, 0.000,      !- Vertex 3
    0.000, 0.000, 3.400;      !- Vertex 4

Zone,
    Z_HALLE_ZSP_6P00,        !- Name
    0.0,                     !- Direction of Relative North {deg}
    0.0,                     !- X Origin {m}
    0.0,                     !- Y Origin {m}
    0.0,                     !- Z Origin {m}
    1,                       !- Type
    1,                       !- Multiplier
    ,                        !- Ceiling Height {m}
    ,                        !- Volume {m3}
    ,                        !- Floor Area {m2}
    ,                        !- Zone Inside Convection Algorithm
    ,                        !- Zone Outside Convection Algorithm
    Yes;                     !- Part of Total Floor Area

!-   Schwerpunkthoehe dieser Zone: 6.000 m

BuildingSurface:Detailed,
    Z_HALLE_ZSP_6P00_Floor,  !- Name
    Floor,                   !- Surface Type
    Wand_Beton,              !- Construction Name
    Z_HALLE_ZSP_6P00,        !- Zone Name
    ,                        !- Space Name
    Adiabatic,               !- Outside Boundary Condition
    ,                        !- Outside Boundary Condition Object
    NoSun,                   !- Sun Exposure
    NoWind,                  !- Wind Exposure
    ,                        !- View Factor to Ground
    4,                       !- Number of Vertices
    20.000, 0.000, 0.000,      !- Vertex 1
    20.000, 10.000, 0.000,      !- Vertex 2
    30.000, 10.000, 0.000,      !- Vertex 3
    30.000, 0.000, 0.000;      !- Vertex 4

BuildingSurface:Detailed,
    Z_HALLE_ZSP_6P00_Roof,   !- Name
    Roof,                    !- Surface Type
    Wand_Beton,              !- Construction Name
    Z_HALLE_ZSP_6P00,        !- Zone Name
    ,                        !- Space Name
    Outdoors,                !- Outside Boundary Condition
    ,                        !- Outside Boundary Condition Object
    SunExposed,              !- Sun Exposure
    WindExposed,             !- Wind Exposure
    ,                        !- View Factor to Ground
    4,                       !- Number of Vertices
    20.000, 10.000, 12.000,      !- Vertex 1
    20.000, 0.000, 12.000,      !- Vertex 2
    30.000, 0.000, 12.000,      !- Vertex 3
    30.000, 10.000, 12.000;      !- Vertex 4

BuildingSurface:Detailed,
    Z_HALLE_ZSP_6P00_Wall_S, !- Name
    Wall,                    !- Surface Type
    Wand_Beton,              !- Construction Name
    Z_HALLE_ZSP_6P00,        !- Zone Name
    ,                        !- Space Name
    Outdoors,                !- Outside Boundary Condition
    ,                        !- Outside Boundary Condition Object
    SunExposed,              !- Sun Exposure
    WindExposed,             !- Wind Exposure
    ,                        !- View Factor to Ground
    4,                       !- Number of Vertices
    20.000, 0.000, 12.000,      !- Vertex 1
    20.000, 0.000, 0.000,      !- Vertex 2
    30.000, 0.000, 0.000,      !- Vertex 3
    30.000, 0.000, 12.000;      !- Vertex 4

BuildingSurface:Detailed,
    Z_HALLE_ZSP_6P00_Wall_E, !- Name
    Wall,                    !- Surface Type
    Wand_Beton,              !- Construction Name
    Z_HALLE_ZSP_6P00,        !- Zone Name
    ,                        !- Space Name
    Adiabatic,               !- Outside Boundary Condition
    ,                        !- Outside Boundary Condition Object
    NoSun,                   !- Sun Exposure
    NoWind,                  !- Wind Exposure
    ,                        !- View Factor to Ground
    4,                       !- Number of Vertices
    30.000, 0.000, 12.000,      !- Vertex 1
    30.000, 0.000, 0.000,      !- Vertex 2
    30.000, 10.000, 0.000,      !- Vertex 3
    30.000, 10.000, 12.000;      !- Vertex 4

BuildingSurface:Detailed,
    Z_HALLE_ZSP_6P00_Wall_N, !- Name
    Wall,                    !- Surface Type
    Wand_Beton,              !- Construction Name
    Z_HALLE_ZSP_6P00,        !- Zone Name
    ,                        !- Space Name
    Adiabatic,               !- Outside Boundary Condition
    ,                        !- Outside Boundary Condition Object
    NoSun,                   !- Sun Exposure
    NoWind,                  !- Wind Exposure
    ,                        !- View Factor to Ground
    4,                       !- Number of Vertices
    30.000, 10.000, 12.000,      !- Vertex 1
    30.000, 10.000, 0.000,      !- Vertex 2
    20.000, 10.000, 0.000,      !- Vertex 3
    20.000, 10.000, 12.000;      !- Vertex 4

BuildingSurface:Detailed,
    Z_HALLE_ZSP_6P00_Wall_W, !- Name
    Wall,                    !- Surface Type
    Wand_Beton,              !- Construction Name
    Z_HALLE_ZSP_6P00,        !- Zone Name
    ,                        !- Space Name
    Adiabatic,               !- Outside Boundary Condition
    ,                        !- Outside Boundary Condition Object
    NoSun,                   !- Sun Exposure
    NoWind,                  !- Wind Exposure
    ,                        !- View Factor to Ground
    4,                       !- Number of Vertices
    20.000, 10.000, 12.000,      !- Vertex 1
    20.000, 10.000, 0.000,      !- Vertex 2
    20.000, 0.000, 0.000,      !- Vertex 3
    20.000, 0.000, 12.000;      !- Vertex 4

Zone,
    Z_HOCH_ZSP_12P00,        !- Name
    0.0,                     !- Direction of Relative North {deg}
    0.0,                     !- X Origin {m}
    0.0,                     !- Y Origin {m}
    0.0,                     !- Z Origin {m}
    1,                       !- Type
    1,                       !- Multiplier
    ,                        !- Ceiling Height {m}
    ,                        !- Volume {m3}
    ,                        !- Floor Area {m2}
    ,                        !- Zone Inside Convection Algorithm
    ,                        !- Zone Outside Convection Algorithm
    Yes;                     !- Part of Total Floor Area

!-   Schwerpunkthoehe dieser Zone: 12.000 m

BuildingSurface:Detailed,
    Z_HOCH_ZSP_12P00_Floor,  !- Name
    Floor,                   !- Surface Type
    Wand_Beton,              !- Construction Name
    Z_HOCH_ZSP_12P00,        !- Zone Name
    ,                        !- Space Name
    Adiabatic,               !- Outside Boundary Condition
    ,                        !- Outside Boundary Condition Object
    NoSun,                   !- Sun Exposure
    NoWind,                  !- Wind Exposure
    ,                        !- View Factor to Ground
    4,                       !- Number of Vertices
    40.000, 0.000, 0.000,      !- Vertex 1
    40.000, 10.000, 0.000,      !- Vertex 2
    50.000, 10.000, 0.000,      !- Vertex 3
    50.000, 0.000, 0.000;      !- Vertex 4

BuildingSurface:Detailed,
    Z_HOCH_ZSP_12P00_Roof,   !- Name
    Roof,                    !- Surface Type
    Wand_Beton,              !- Construction Name
    Z_HOCH_ZSP_12P00,        !- Zone Name
    ,                        !- Space Name
    Outdoors,                !- Outside Boundary Condition
    ,                        !- Outside Boundary Condition Object
    SunExposed,              !- Sun Exposure
    WindExposed,             !- Wind Exposure
    ,                        !- View Factor to Ground
    4,                       !- Number of Vertices
    40.000, 10.000, 24.000,      !- Vertex 1
    40.000, 0.000, 24.000,      !- Vertex 2
    50.000, 0.000, 24.000,      !- Vertex 3
    50.000, 10.000, 24.000;      !- Vertex 4

BuildingSurface:Detailed,
    Z_HOCH_ZSP_12P00_Wall_S, !- Name
    Wall,                    !- Surface Type
    Wand_Beton,              !- Construction Name
    Z_HOCH_ZSP_12P00,        !- Zone Name
    ,                        !- Space Name
    Outdoors,                !- Outside Boundary Condition
    ,                        !- Outside Boundary Condition Object
    SunExposed,              !- Sun Exposure
    WindExposed,             !- Wind Exposure
    ,                        !- View Factor to Ground
    4,                       !- Number of Vertices
    40.000, 0.000, 24.000,      !- Vertex 1
    40.000, 0.000, 0.000,      !- Vertex 2
    50.000, 0.000, 0.000,      !- Vertex 3
    50.000, 0.000, 24.000;      !- Vertex 4

BuildingSurface:Detailed,
    Z_HOCH_ZSP_12P00_Wall_E, !- Name
    Wall,                    !- Surface Type
    Wand_Beton,              !- Construction Name
    Z_HOCH_ZSP_12P00,        !- Zone Name
    ,                        !- Space Name
    Adiabatic,               !- Outside Boundary Condition
    ,                        !- Outside Boundary Condition Object
    NoSun,                   !- Sun Exposure
    NoWind,                  !- Wind Exposure
    ,                        !- View Factor to Ground
    4,                       !- Number of Vertices
    50.000, 0.000, 24.000,      !- Vertex 1
    50.000, 0.000, 0.000,      !- Vertex 2
    50.000, 10.000, 0.000,      !- Vertex 3
    50.000, 10.000, 24.000;      !- Vertex 4

BuildingSurface:Detailed,
    Z_HOCH_ZSP_12P00_Wall_N, !- Name
    Wall,                    !- Surface Type
    Wand_Beton,              !- Construction Name
    Z_HOCH_ZSP_12P00,        !- Zone Name
    ,                        !- Space Name
    Adiabatic,               !- Outside Boundary Condition
    ,                        !- Outside Boundary Condition Object
    NoSun,                   !- Sun Exposure
    NoWind,                  !- Wind Exposure
    ,                        !- View Factor to Ground
    4,                       !- Number of Vertices
    50.000, 10.000, 24.000,      !- Vertex 1
    50.000, 10.000, 0.000,      !- Vertex 2
    40.000, 10.000, 0.000,      !- Vertex 3
    40.000, 10.000, 24.000;      !- Vertex 4

BuildingSurface:Detailed,
    Z_HOCH_ZSP_12P00_Wall_W, !- Name
    Wall,                    !- Surface Type
    Wand_Beton,              !- Construction Name
    Z_HOCH_ZSP_12P00,        !- Zone Name
    ,                        !- Space Name
    Adiabatic,               !- Outside Boundary Condition
    ,                        !- Outside Boundary Condition Object
    NoSun,                   !- Sun Exposure
    NoWind,                  !- Wind Exposure
    ,                        !- View Factor to Ground
    4,                       !- Number of Vertices
    40.000, 10.000, 24.000,      !- Vertex 1
    40.000, 10.000, 0.000,      !- Vertex 2
    40.000, 0.000, 0.000,      !- Vertex 3
    40.000, 0.000, 24.000;      !- Vertex 4

Output:VariableDictionary, IDF;

Output:Variable, *, Site Wind Speed, Hourly;
Output:Variable, *, Site Outdoor Air Drybulb Temperature, Hourly;
Output:Variable, *, Zone Outdoor Air Wind Speed, Hourly;
Output:Variable, *, Zone Outdoor Air Drybulb Temperature, Hourly;
Output:Variable, *, Surface Outside Face Outdoor Air Wind Speed, Hourly;
Output:Variable, *, Surface Outside Face Outdoor Air Drybulb Temperature, Hourly;
